#######################################################
#CASTEP cell file: /home/eng/phrbqc/GitHub/InPDislocs/Devel/Data_Devel/DFT_Stacking_Fault/CST_Runfiles/StackingFaultStructs_(1_1_0)_(1_-1_0)_7/StackingFaultStructs_(1_1_0)_(1_-1_0)_7.cell
#Created using the Atomic Simulation Environment (ASE)#
#######################################################

%BLOCK LATTICE_CART
 5.901274  0.000000  0.000000
 0.000000  8.345661  0.000000
 0.000000  3.370363 16.691322
%ENDBLOCK LATTICE_CART

%BLOCK POSITIONS_ABS
In  2.950637  2.086415  6.248402
In  0.000000  4.172831 12.559879
In  2.950637  6.259246 10.438561
In  0.000000  0.000000 12.559879
In  2.950637  2.086415 10.438561
In  0.000000  0.000000  8.356505
In  0.000000  4.172831  8.356505
In  2.950637  6.259246 14.620614
In  2.950637  6.259246  6.248402
In  0.000000  4.172831  4.166346
In  2.950637  6.259246  2.045029
In  2.950637  2.086415 14.620614
In  0.000000  0.000000  4.166346
In  2.950637  2.086415  2.045029
In  0.000000  0.000000 -0.015707
In  0.000000  4.172831 -0.015707
P  4.425955  4.172831  6.258541
P  1.475318  2.086415 -0.059705
P  4.425955  4.172831 14.664612
P  4.425955  4.172831  2.071393
P  1.475318  6.259246 12.533514
P  4.425955  0.000000  2.071393
P  1.475318  2.086415  4.149739
P  1.475318  2.086415 12.533514
P  1.475318  6.259246  4.149739
P  4.425955  0.000000 10.455168
P  4.425955 -0.000000  6.258541
P  4.425955  4.172831 10.455168
P  1.475318  2.086415  8.346366
P  1.475318  6.259246  8.346366
P  4.425955 -0.000000 14.664612
P  1.475318  6.259246 -0.059705
%ENDBLOCK POSITIONS_ABS

FIX_ALL_CELL: TRUE
KPOINT_MP_GRID: 6 6 2
KPOINT_MP_OFFSET: 0.08333333333333333 0.08333333333333333 0.25

%BLOCK IONIC_CONSTRAINTS
1 In 1 1 0 0
2 In 1 0 1 0
3 In 2 1 0 0
4 In 2 0 1 0
5 In 3 1 0 0
6 In 3 0 1 0
7 In 4 1 0 0
8 In 4 0 1 0
9 In 5 1 0 0
10 In 5 0 1 0
11 In 6 1 0 0
12 In 6 0 1 0
13 In 7 1 0 0
14 In 7 0 1 0
15 In 8 1 0 0
16 In 8 0 1 0
17 In 9 1 0 0
18 In 9 0 1 0
19 In 10 1 0 0
20 In 10 0 1 0
21 In 11 1 0 0
22 In 11 0 1 0
23 In 12 1 0 0
24 In 12 0 1 0
25 In 13 1 0 0
26 In 13 0 1 0
27 In 14 1 0 0
28 In 14 0 1 0
29 In 15 1 0 0
30 In 15 0 1 0
31 In 16 1 0 0
32 In 16 0 1 0
33 P 1 1 0 0
34 P 1 0 1 0
35 P 2 1 0 0
36 P 2 0 1 0
37 P 3 1 0 0
38 P 3 0 1 0
39 P 4 1 0 0
40 P 4 0 1 0
41 P 5 1 0 0
42 P 5 0 1 0
43 P 6 1 0 0
44 P 6 0 1 0
45 P 7 1 0 0
46 P 7 0 1 0
47 P 8 1 0 0
48 P 8 0 1 0
49 P 9 1 0 0
50 P 9 0 1 0
51 P 10 1 0 0
52 P 10 0 1 0
53 P 11 1 0 0
54 P 11 0 1 0
55 P 12 1 0 0
56 P 12 0 1 0
57 P 13 1 0 0
58 P 13 0 1 0
59 P 14 1 0 0
60 P 14 0 1 0
61 P 15 1 0 0
62 P 15 0 1 0
63 P 16 1 0 0
64 P 16 0 1 0
%ENDBLOCK IONIC_CONSTRAINTS
