# written by ASE

%BLOCK LATTICE_CART
14.454049 20.441112  0.000000
14.454049 -20.441112  0.000000
-0.000000  0.000000  4.172525
%ENDBLOCK LATTICE_CART

%BLOCK POSITIONS_ABS
In  9.907139 -2.936290  3.662908
P 10.275224 -0.405415  3.125241
In  6.185267 -2.951283  1.978395
P  5.976080 -0.390257  2.119709
In  8.161652  0.711947  2.496444
P  8.256360  3.187227  2.282033
In 11.537539  0.509858  0.987495
P 11.806783  3.020459  0.452958
In  7.024313  3.992365  0.176643
P  7.123677  6.513540  0.099270
In 10.682547  3.968682  2.506846
P 10.755475  6.490619  2.307735
In  9.548159  7.319413  0.195996
P  9.636583  9.848320 -0.000410
In  5.908748  7.323302  2.168261
P 20.457383 -10.586672  2.007592
In  8.425466 10.674990  2.062827
P 22.973326 -7.235229  1.862131
In 12.061389 10.660146  0.058467
P 12.150761 13.189817 -0.135676
In 21.780378 -6.388813  3.923648
P 21.880412 -3.856343  3.711473
In 10.942128 14.014330  1.925357
P 25.454542 -3.907173  1.791796
In 17.149315 -2.952974  3.595439
P 17.420638 -0.414646  3.218849
In 13.551999 -2.967236  1.500542
P 13.862912 -0.428345  1.087491
In 15.067497  0.481048  3.131253
P 15.383859  3.001486  2.648834
In 18.624390  0.484801  1.088774
P 18.980229  3.003320  0.608213
In 14.217282  3.893469  0.540887
P 14.353321  6.436364  0.307630
In 17.798067  3.889637  2.678835
P 17.945821  6.436642  2.433605
In 16.766769  7.304830  0.328916
P 16.879979  9.852998  0.138082
In 13.176702  7.304927  2.371215
P 13.271396  9.837146  2.165722
In 15.682624 10.699872  2.208835
P 15.761216 13.244746  2.076353
In 19.299551 10.718662  0.117009
P 19.400158 13.278048 -0.014499
In 14.547910 14.077216 -0.021791
P 14.577529 16.621684 -0.070598
In 18.176283 14.104442  2.066590
P  3.760837 -3.783188  2.021209
In 24.284114 -2.998076  3.862749
P 24.471768 -0.593598  3.161937
In 20.736295 -2.948369  1.588163
P 20.963123 -0.409552  1.251263
In 22.227327  0.438757  3.303579
P 22.606886  2.952328  2.683767
In 26.423552  0.365030  0.219861
P 26.327408  2.927303  0.325822
In 21.421034  3.858683  0.588885
P 21.551444  6.410150  0.324553
In 25.063542  3.729978  2.434904
P 10.714296 -14.125366  2.265887
In  9.535087 -13.223164  4.351004
P  9.634479 -10.650007  4.215049
In 20.369471  7.286831  2.399050
P 20.483902  9.843911  2.212938
In  8.454950 -9.753605  2.125306
P  8.563640 -7.183051  2.002196
In 12.055234 -9.803968  4.098736
P 12.176623 -7.244225  3.911908
In  7.375157 -6.299050  4.091239
P  7.463290 -3.713468  4.040203
In 10.994933 -6.362594  1.813865
P 11.111179 -3.805387  1.593008
In  2.524153 -2.960769  4.111652
P  2.412108 -0.411352  0.014281
In 13.363104 17.470032  2.008355
P 27.752851 -0.434104  2.228766
In  1.201746  0.426137  2.101505
P 15.525620 -17.466173  2.228134
In  4.760971  0.495419  0.041369
P  4.675263  3.038219  0.113924
In 14.289870 -16.647242  4.325830
P 14.346511 -14.087938  4.237050
In  3.455085  3.870625  2.197797
P 17.971774 -14.024856  2.126541
In 16.752060 -13.199165  4.203037
P 16.848513 -10.648414  4.067739
In 13.130444 -13.247064  2.147993
P 13.240409 -10.680316  2.020079
In 15.651485 -9.801660  1.968457
P 15.776955 -7.249375  1.772901
In 19.251514 -9.761357  4.075247
P 19.365283 -7.223583  3.873178
In 14.595253 -6.385390  3.841669
P 14.730049 -3.834149  3.610182
In 18.184326 -6.365883  1.764622
P 18.320279 -3.822282  1.538475
%ENDBLOCK POSITIONS_ABS

KPOINT_MP_GRID: 2 2 8
KPOINT_MP_OFFSET: 0.25 0.25 0.0625
