# written by ASE

%BLOCK LATTICE_CART
14.454049 20.441112  0.000000
14.454049 -20.441112  0.000000
-0.000000  0.000000  4.172525
%ENDBLOCK LATTICE_CART

%BLOCK POSITIONS_ABS
In  9.909687 -2.936849  3.659777
P 10.287422 -0.410589  3.103498
In  6.186524 -2.948038  1.979431
P  5.975575 -0.388552  2.126223
In  8.163020  0.706762  2.514727
P  8.253371  3.183097  2.288602
In 11.540944  0.511796  0.967729
P 11.803818  3.025414  0.455077
In  7.023786  3.991582  0.183015
P  7.123283  6.512571  0.102043
In 10.677370  3.969246  2.510118
P 10.753950  6.491042  2.308921
In  9.547223  7.320023  0.197368
P  9.636091  9.848650 -0.000186
In  5.908248  7.322259  2.170820
P 20.457036 -10.587718  2.007886
In  8.424801 10.674830  2.062989
P 22.973320 -7.235561  1.860874
In 12.061204 10.659436  0.059235
P 12.151382 13.188970 -0.136371
In 21.780205 -6.389423  3.922298
P 21.880804 -3.857355  3.708938
In 10.942453 14.012767  1.924525
P 25.455039 -3.908687  1.792127
In 17.149959 -2.952557  3.590722
P 17.422950 -0.414030  3.212839
In 13.552385 -2.965942  1.494581
P 13.866112 -0.427476  1.078455
In 15.069555  0.481478  3.123843
P 15.381708  3.003888  2.650694
In 18.625403  0.485963  1.083721
P 18.978220  3.006119  0.611460
In 14.215067  3.895079  0.543201
P 14.352371  6.437445  0.309156
In 17.795592  3.891492  2.682596
P 17.944430  6.438246  2.436103
In 16.765454  7.306109  0.331590
P 16.879757  9.854312  0.139672
In 13.175301  7.304459  2.372901
P 13.271193  9.836792  2.166487
In 15.682117 10.700704  2.210412
P 15.761810 13.245734  2.076934
In 19.299483 10.719880  0.118673
P 19.401369 13.279431 -0.013996
In 14.547951 14.077718 -0.021241
P 14.577607 16.622138 -0.069349
In 18.177134 14.105494  2.067193
P  3.762117 -3.781971  2.022060
In 24.285347 -3.000616  3.863276
P 24.469811 -0.594845  3.167699
In 20.736937 -2.948851  1.585071
P 20.963620 -0.409225  1.250050
In 22.226237  0.439194  3.303225
P 22.606078  2.952596  2.685278
In 26.427277  0.365520  0.214028
P 26.327120  2.926945  0.327617
In 21.419481  3.859540  0.590925
P 21.550200  6.411039  0.327322
In 25.062693  3.728797  2.437609
P 10.713225 -14.126486  2.267209
In  9.534050 -13.223903  4.352523
P  9.634104 -10.650581  4.215602
In 20.368042  7.287450  2.402013
P 20.483569  9.844649  2.214579
In  8.454801 -9.753478  2.125895
P  8.564377 -7.182850  2.001214
In 12.055112 -9.805399  4.097772
P 12.177541 -7.245941  3.908856
In  7.376502 -6.297671  4.090210
P  7.465216 -3.710949  4.040939
In 10.996313 -6.364046  1.810668
P 11.112296 -3.806992  1.589666
In  2.524375 -2.960497  4.112742
P  2.411829 -0.411209  0.017636
In 13.362491 17.469382  2.009935
P 27.753242 -0.434419  2.224883
In  1.202367  0.426282  2.104723
P 15.524965 -17.466313  2.229835
In  4.760138  0.496197  0.046779
P  4.673944  3.038806  0.117517
In 14.289434 -16.647591  4.327099
P 14.346044 -14.088638  4.237503
In  3.454353  3.870505  2.200981
P 17.971233 -14.025260  2.127833
In 16.751588 -13.199615  4.204115
P 16.848146 -10.649007  4.067099
In 13.129512 -13.248243  2.148275
P 13.240286 -10.681592  2.019189
In 15.651184 -9.802087  1.967648
P 15.777272 -7.249902  1.770212
In 19.251186 -9.762206  4.075373
P 19.365311 -7.224436  3.871514
In 14.595751 -6.385508  3.838804
P 14.730507 -3.834398  3.604737
In 18.184603 -6.366229  1.762829
P 18.320657 -3.822757  1.534318
%ENDBLOCK POSITIONS_ABS

KPOINT_MP_GRID: 2 2 8
KPOINT_MP_OFFSET: 0.25 0.25 0.0625
