# written by ASE

%BLOCK LATTICE_CART
11.801682 -0.000008 -0.000008
-0.000008 11.801682 -0.000008
-0.000008 -0.000008 11.801682
%ENDBLOCK LATTICE_CART

%BLOCK POSITIONS_ABS
P  1.432251  1.687924  4.543681
P  4.543669  1.687916  1.432269
P  1.511597  4.443274  1.511598
In  0.053637 -0.010535  0.053637
In  3.058186  0.430115  3.058160
In -0.062266  3.031788  2.940727
In  2.940728  3.031788 -0.062267
P  1.489623  1.475327 10.328859
P  4.447326  1.489633  7.408937
P  1.454303  4.561902  7.473835
P  4.431493  4.514072 10.290451
In  0.013167 -0.009186  5.896194
In  2.970132 -0.016686  8.874143
In  0.013029  2.962782  8.870855
In  2.951185  3.078209  6.079375
P  1.562659  7.339283  4.401718
P  4.401718  7.339283  1.562660
P  1.617814 10.525807  1.617815
P  4.386045 10.478917  4.386046
In  0.018005  5.910052  0.018005
In  3.137874  5.692269  3.137873
In  0.136855  8.897121  2.924965
In  2.924967  8.897121  0.136854
P  1.472179  7.456290 10.393106
P  4.449214  7.423355  7.283155
P  1.483725 10.331695  7.382996
P  4.421498 10.286644 10.362217
In  0.012424  5.964015  5.890129
In  2.980463  6.069822  8.864954
In -0.014612  8.876899  8.871241
In  2.954312  8.922115  5.843492
P  7.408938  1.489633  4.447327
P 10.328860  1.475327  1.489625
P  7.473838  4.561905  1.454305
P 10.290454  4.514070  4.431494
In  5.896194 -0.009187  0.013167
In  8.874142 -0.016685  2.970131
In  6.079373  3.078208  2.951183
In  8.870853  2.962782  0.013028
P  7.369678  1.500507 10.360025
P 10.360028  1.500508  7.369675
P  7.318700  4.440474  7.318699
P 10.327338  4.439571 10.327337
In  5.912841  0.007282  5.912841
In  8.870054  0.070626  8.870057
In  5.917128  2.981252  8.873682
In  8.873681  2.981252  5.917128
P  7.283156  7.423356  4.449215
P 10.393107  7.456290  1.472179
P  7.382997 10.331695  1.483725
P 10.362217 10.286645  4.421497
In  5.890129  5.964014  0.012424
In  8.864952  6.069822  2.980459
In  5.843493  8.922115  2.954310
In  8.871241  8.876900 -0.014612
P  7.390584  7.393328 10.318428
P 10.318429  7.393328  7.390583
P  7.401708 10.371302  7.401707
P 10.343045 10.380142 10.343045
In  5.723388  5.769754  5.723388
In  8.823393  5.889578  8.823394
In  5.920978  8.855801  8.831379
In  8.831379  8.855801  5.920978
%ENDBLOCK POSITIONS_ABS

KPOINT_MP_GRID: 4 4 4
KPOINT_MP_OFFSET: 0.125 0.125 0.125
