# written by ASE

%BLOCK LATTICE_CART
11.801682 -0.000008 -0.000008
-0.000008 11.801682 -0.000008
-0.000008 -0.000008 11.801682
%ENDBLOCK LATTICE_CART

%BLOCK POSITIONS_ABS
P  1.434369  1.688546  4.545167
P  4.545156  1.688540  1.434385
P  1.512781  4.439453  1.512782
In  0.052156 -0.010484  0.052156
In  3.058344  0.430286  3.058321
In -0.062758  3.028592  2.941686
In  2.941688  3.028592 -0.062759
P  1.489013  1.474783 10.327589
P  4.445071  1.493146  7.405264
P  1.456724  4.562459  7.471403
P  4.431353  4.514052 10.291881
In  0.014386 -0.009476  5.897098
In  2.970574 -0.015560  8.872264
In  0.014776  2.963649  8.868303
In  2.960284  3.090425  6.066834
P  1.563783  7.338315  4.400498
P  4.400498  7.338316  1.563784
P  1.617208 10.528112  1.617210
P  4.385973 10.478284  4.385974
In  0.019694  5.908200  0.019694
In  3.138134  5.688879  3.138134
In  0.138307  8.898320  2.924623
In  2.924625  8.898320  0.138306
P  1.472057  7.456457 10.395111
P  4.449970  7.420099  7.282686
P  1.484579 10.329965  7.383031
P  4.421304 10.287312 10.362253
In  0.012624  5.965013  5.890666
In  2.979701  6.069897  8.866691
In -0.014685  8.876024  8.871617
In  2.955384  8.920659  5.843351
P  7.405265  1.493145  4.445072
P 10.327590  1.474782  1.489014
P  7.471406  4.562462  1.456725
P 10.291883  4.514050  4.431354
In  5.897098 -0.009477  0.014385
In  8.872263 -0.015559  2.970573
In  6.066832  3.090425  2.960282
In  8.868302  2.963649  0.014776
P  7.369297  1.500178 10.360272
P 10.360275  1.500179  7.369294
P  7.320533  4.437412  7.320532
P 10.328181  4.438710 10.328181
In  5.912282  0.008957  5.912282
In  8.869381  0.070884  8.869384
In  5.915291  2.979920  8.874560
In  8.874558  2.979919  5.915291
P  7.282687  7.420099  4.449970
P 10.395111  7.456457  1.472058
P  7.383031 10.329965  1.484579
P 10.362253 10.287313  4.421304
In  5.890666  5.965013  0.012623
In  8.866689  6.069897  2.979698
In  5.843351  8.920659  2.955383
In  8.871617  8.876024 -0.014685
P  7.390474  7.393625 10.317311
P 10.317312  7.393625  7.390473
P  7.400612 10.371709  7.400611
P 10.342091 10.379736 10.342090
In  5.725637  5.763079  5.725637
In  8.824146  5.888728  8.824146
In  5.920147  8.855834  8.830164
In  8.830164  8.855834  5.920147
%ENDBLOCK POSITIONS_ABS

KPOINT_MP_GRID: 4 4 4
KPOINT_MP_OFFSET: 0.125 0.125 0.125
