# written by ASE

%BLOCK LATTICE_CART
11.802550  0.000000  0.000000
 0.000000 11.802550  0.000000
 0.000000  0.000000 11.802550
%ENDBLOCK LATTICE_CART

%BLOCK POSITIONS_ABS
P  1.475319  1.475319  4.452775
P  4.452775  1.475319  1.475319
P  1.475319  4.452775  1.475319
P  4.426241  4.426241  4.426241
P  1.475319  1.475319 10.300412
P  4.431254  1.475319  7.376594
P  1.475319  4.431254  7.376594
P  4.545259  4.545259 10.207929
P  1.475319  7.376594  4.431254
P  4.431254  7.376594  1.475319
P  1.475319 10.300412  1.475319
P  4.545259 10.207929  4.545259
P  1.475319  7.376594 10.321934
P  4.435878  7.376594  7.376594
P  1.475319 10.321934  7.376594
P  4.426241 10.326946 10.326946
P  7.376594  1.475319  4.431254
P 10.300412  1.475319  1.475319
P  7.376594  4.431254  1.475319
P 10.207929  4.545259  4.545259
P  7.376594  1.475319 10.321934
P 10.321934  1.475319  7.376594
P  7.376594  4.435878  7.376594
P 10.326946  4.426241 10.326946
P  7.376594  7.376594  4.435878
P 10.321934  7.376594  1.475319
P  7.376594 10.321934  1.475319
P 10.326946 10.326946  4.426241
P  7.376594  7.376594 10.317310
P 10.317310  7.376594  7.376594
P  7.376594 10.317310  7.376594
P 10.207929 10.207929 10.207929
In -0.167274 -0.167274 -0.167274
In  3.117911 -0.167274  3.117911
In -0.167274  3.117911  3.117911
In  3.117911  3.117911 -0.167274
In -0.006616 -0.006616  5.913523
In  2.957254 -0.006616  8.839665
In -0.006616  2.957254  8.839665
In  2.957254  2.957254  5.913523
In -0.006616  5.913523 -0.006616
In  2.957254  5.913523  2.957254
In -0.006616  8.839665  2.957254
In  2.957254  8.839665 -0.006616
In  0.016956  5.937372  5.937372
In  2.933682  5.937372  8.815816
In  0.016956  8.815816  8.815816
In  2.933682  8.815816  5.937372
In  5.913523 -0.006616 -0.006616
In  8.839665 -0.006616  2.957254
In  5.913523  2.957254  2.957254
In  8.839665  2.957254 -0.006616
In  5.937372  0.016956  5.937372
In  8.815816  0.016956  8.815816
In  5.937372  2.933682  8.815816
In  8.815816  2.933682  5.937372
In  5.937372  5.937372  0.016956
In  8.815816  5.937372  2.933682
In  5.937372  8.815816  2.933682
In  8.815816  8.815816  0.016956
In  5.899725  5.899725  5.899725
In  8.853462  5.899725  8.853462
In  5.899725  8.853462  8.853462
In  8.853462  8.853462  5.899725
In  1.475319  1.475319  1.475319
%ENDBLOCK POSITIONS_ABS

KPOINT_MP_GRID: 4 4 4
KPOINT_MP_OFFSET: 0.125 0.125 0.125
