# written by ASE

%BLOCK LATTICE_CART
11.802550  0.000000  0.000000
 0.000000 11.802550  0.000000
 0.000000  0.000000 11.802550
%ENDBLOCK LATTICE_CART

%BLOCK POSITIONS_ABS
P  1.475319  1.475319  4.452833
P  4.452833  1.475319  1.475319
P  1.475319  4.452833  1.475319
P  4.426509  4.426509  4.426509
P  1.475319  1.475319 10.300354
P  4.430996  1.475319  7.376594
P  1.475319  4.430996  7.376594
P  4.545323  4.545323 10.207865
P  1.475319  7.376594  4.430996
P  4.430996  7.376594  1.475319
P  1.475319 10.300354  1.475319
P  4.545323 10.207865  4.545323
P  1.475319  7.376594 10.322192
P  4.435814  7.376594  7.376594
P  1.475319 10.322192  7.376594
P  4.426509 10.326679 10.326679
P  7.376594  1.475319  4.430996
P 10.300354  1.475319  1.475319
P  7.376594  4.430996  1.475319
P 10.207865  4.545323  4.545323
P  7.376594  1.475319 10.322192
P 10.322192  1.475319  7.376594
P  7.376594  4.435814  7.376594
P 10.326679  4.426509 10.326679
P  7.376594  7.376594  4.435814
P 10.322192  7.376594  1.475319
P  7.376594 10.322192  1.475319
P 10.326679 10.326679  4.426509
P  7.376594  7.376594 10.317374
P 10.317374  7.376594  7.376594
P  7.376594 10.317374  7.376594
P 10.207865 10.207865 10.207865
In -0.167271 -0.167271 -0.167271
In  3.117909 -0.167271  3.117909
In -0.167271  3.117909  3.117909
In  3.117909  3.117909 -0.167271
In -0.006780 -0.006780  5.913324
In  2.957418 -0.006780  8.839864
In -0.006780  2.957418  8.839864
In  2.957418  2.957418  5.913324
In -0.006780  5.913324 -0.006780
In  2.957418  5.913324  2.957418
In -0.006780  8.839864  2.957418
In  2.957418  8.839864 -0.006780
In  0.017073  5.937416  5.937416
In  2.933564  5.937416  8.815772
In  0.017073  8.815772  8.815772
In  2.933564  8.815772  5.937416
In  5.913324 -0.006780 -0.006780
In  8.839864 -0.006780  2.957418
In  5.913324  2.957418  2.957418
In  8.839864  2.957418 -0.006780
In  5.937416  0.017073  5.937416
In  8.815772  0.017073  8.815772
In  5.937416  2.933564  8.815772
In  8.815772  2.933564  5.937416
In  5.937416  5.937416  0.017073
In  8.815772  5.937416  2.933564
In  5.937416  8.815772  2.933564
In  8.815772  8.815772  0.017073
In  5.899991  5.899991  5.899991
In  8.853196  5.899991  8.853196
In  5.899991  8.853196  8.853196
In  8.853196  8.853196  5.899991
In  1.475319  1.475319  1.475319
%ENDBLOCK POSITIONS_ABS

KPOINT_MP_GRID: 4 4 4
KPOINT_MP_OFFSET: 0.125 0.125 0.125
