# written by ASE

%BLOCK LATTICE_CART
 5.890219 -0.000004 -0.000004
-0.000004  5.900841 -0.005315
-0.000004 -0.005315  5.900841
%ENDBLOCK LATTICE_CART

%BLOCK POSITIONS_ABS
P  1.472551  1.471223  4.424301
P  4.417663  1.473879  1.473879
P  1.472551  4.424301  1.471223
P  4.417659  4.421642  4.421642
In  0.000000  0.000000  0.000000
In  2.945108 -0.002659  2.950419
In -0.000004  2.947763  2.947763
In  2.945108  2.950419 -0.002659
%ENDBLOCK POSITIONS_ABS

FIX_ALL_CELL: TRUE
KPOINT_MP_GRID: 6 6 6
KPOINT_MP_OFFSET: 0.08333333333333333 0.08333333333333333 0.08333333333333333
