#######################################################
#CASTEP cell file: /home/eng/phrbqc/GitHub/InPDislocs/Devel/Data_Devel/EOS/CASTEP_Files/WZ_EOS_0.8751/WZ_EOS_0.8751.cell
#Created using the Atomic Simulation Environment (ASE)#
#######################################################

%BLOCK LATTICE_CART
 3.644452 -0.000038  0.000000
 1.822193  3.156206 -0.000000
 0.000000 -0.000000  5.984977
%ENDBLOCK LATTICE_CART

%BLOCK POSITIONS_ABS
P  1.822195  1.052049 -0.000078
P  3.644447  2.104126  2.992411
In  1.822206  1.052055  2.241033
In  3.644436  2.104119  5.233522
%ENDBLOCK POSITIONS_ABS

KPOINT_MP_GRID: 11 11 7
KPOINT_MP_OFFSET: 0.045455 0.045455 0.071429
