#######################################################
#CASTEP cell file: /home/eng/phrbqc/GitHub/InPDislocs/Devel/Data_Devel/EOS/CASTEP_Files/WZ_EOS_1.035/WZ_EOS_1.035.cell
#Created using the Atomic Simulation Environment (ASE)#
#######################################################

%BLOCK LATTICE_CART
 4.310404 -0.000045  0.000000
 2.155163  3.732941 -0.000000
 0.000000 -0.000000  7.078614
%ENDBLOCK LATTICE_CART

%BLOCK POSITIONS_ABS
P  2.155165  1.244290 -0.000092
P  4.310398  2.488613  3.539215
In  2.155178  1.244297  2.650538
In  4.310385  2.488606  6.189845
%ENDBLOCK POSITIONS_ABS

KPOINT_MP_GRID: 9 9 5
KPOINT_MP_OFFSET: 0.055556 0.055556 0.1
