#######################################################
#CASTEP cell file: /home/eng/phrbqc/GitHub/InPDislocs/Devel/Data_Devel/EOS/CASTEP_Files/ZB_EOS_0.6778/ZB_EOS_0.6778.cell
#Created using the Atomic Simulation Environment (ASE)#
#######################################################

%BLOCK LATTICE_CART
 4.000000  0.000000 -0.000000
 0.000000  4.000000 -0.000000
-0.000000 -0.000000  4.000000
%ENDBLOCK LATTICE_CART

%BLOCK POSITIONS_ABS
P  1.000000  1.000000  3.000000
P  3.000000  1.000000  1.000000
P  1.000000  3.000000  1.000000
P  3.000000  3.000000  3.000000
In  0.000000  0.000000  0.000000
In  2.000000  0.000000  2.000000
In  0.000000  2.000000  2.000000
In  2.000000  2.000000  0.000000
%ENDBLOCK POSITIONS_ABS

KPOINT_MP_GRID: 9 9 9
KPOINT_MP_OFFSET: 0.055556 0.055556 0.055556
