#######################################################
#CASTEP cell file: /home/eng/phrbqc/GitHub/InPDislocs/Devel/Data_Devel/EOS/CASTEP_Files/WZ_EOS_0.7738/WZ_EOS_0.7738.cell
#Created using the Atomic Simulation Environment (ASE)#
#######################################################

%BLOCK LATTICE_CART
 3.222682 -0.000034  0.000000
 1.611312  2.790941 -0.000000
 0.000000 -0.000000  5.292341
%ENDBLOCK LATTICE_CART

%BLOCK POSITIONS_ABS
P  1.611314  0.930296 -0.000069
P  3.222678  1.860617  2.646102
In  1.611324  0.930301  1.981680
In  3.222668  1.860611  4.627850
%ENDBLOCK POSITIONS_ABS

KPOINT_MP_GRID: 13 13 7
KPOINT_MP_OFFSET: 0.038462 0.038462 0.071429
