#######################################################
#CASTEP cell file: /home/eng/phrbqc/GitHub/InPDislocs/Devel/Data_Devel/EOS/CASTEP_Files/ZB_EOS_1.1628/ZB_EOS_1.1628.cell
#Created using the Atomic Simulation Environment (ASE)#
#######################################################

%BLOCK LATTICE_CART
 6.862167  0.000000 -0.000000
 0.000000  6.862167 -0.000000
-0.000000 -0.000000  6.862167
%ENDBLOCK LATTICE_CART

%BLOCK POSITIONS_ABS
P  1.715542  1.715542  5.146626
P  5.146626  1.715542  1.715542
P  1.715542  5.146626  1.715542
P  5.146626  5.146626  5.146626
In  0.000000  0.000000  0.000000
In  3.431084  0.000000  3.431084
In  0.000000  3.431084  3.431084
In  3.431084  3.431084  0.000000
%ENDBLOCK POSITIONS_ABS

KPOINT_MP_GRID: 5 5 5
KPOINT_MP_OFFSET: 0.1 0.1 0.1
