#######################################################
#CASTEP cell file: /home/eng/phrbqc/GitHub/InPDislocs/Devel/Data_Devel/EOS/CASTEP_Files/WZ_EOS_0.7685/WZ_EOS_0.7685.cell
#Created using the Atomic Simulation Environment (ASE)#
#######################################################

%BLOCK LATTICE_CART
 3.200484 -0.000033  0.000000
 1.600213  2.771716 -0.000000
 0.000000 -0.000000  5.255886
%ENDBLOCK LATTICE_CART

%BLOCK POSITIONS_ABS
P  1.600215  0.923888 -0.000068
P  3.200479  1.847801  2.627875
In  1.600224  0.923893  1.968030
In  3.200470  1.847795  4.595973
%ENDBLOCK POSITIONS_ABS

KPOINT_MP_GRID: 13 13 7
KPOINT_MP_OFFSET: 0.038462 0.038462 0.071429
