# written by ASE

%BLOCK LATTICE_CART
11.801682 -0.000008 -0.000008
-0.000008 11.801682 -0.000008
-0.000008 -0.000008 11.801682
%ENDBLOCK LATTICE_CART

%BLOCK POSITIONS_ABS
P  1.720661  1.720661  4.360173
P  4.481601  1.508777  1.397140
P  1.508777  4.481601  1.397140
In  0.016462  0.016462  0.035438
In  3.052855  0.064772  2.923379
In  0.064772  3.052855  2.923379
In  2.956214  2.956214 -0.053808
P  1.467139  1.467139 10.310910
P  4.496794  1.453224  7.471332
P  1.453224  4.496794  7.471332
P  4.455610  4.455610 10.320586
In  0.141772  0.141772  5.757428
In  2.956544 -0.039211  8.877168
In -0.039211  2.956544  8.877168
In  3.002521  3.002521  6.151487
P  1.520427  7.336642  4.420223
P  4.450914  7.364365  1.534288
P  1.500281 10.373981  1.538086
P  4.444725 10.346363  4.430973
In  0.004352  5.954603 -0.068428
In  3.037075  5.795664  3.001867
In  0.021926  8.848531  2.969234
In  2.961951  8.867530  0.081956
P  1.500783  7.463910 10.322882
P  4.454581  7.338283  7.298938
P  1.486373 10.384889  7.312269
P  4.441197 10.283847 10.335514
In  0.007551  5.924244  5.909485
In  2.988816  5.978002  8.880756
In  0.018171  8.917139  8.822114
In  2.957891  8.853530  5.896290
P  7.336642  1.520427  4.420223
P 10.373981  1.500281  1.538086
P  7.364365  4.450914  1.534288
P 10.346363  4.444725  4.430973
In  5.954603  0.004352 -0.068428
In  8.848531  0.021925  2.969234
In  5.795664  3.037075  3.001867
In  8.867530  2.961951  0.081957
P  7.463911  1.500782 10.322882
P 10.384889  1.486373  7.312269
P  7.338283  4.454581  7.298938
P 10.283847  4.441197 10.335514
In  5.924244  0.007551  5.909485
In  8.917139  0.018170  8.822114
In  5.978002  2.988816  8.880756
In  8.853530  2.957891  5.896291
P  7.383565  7.383565  4.435779
P 10.351709  7.395462  1.462885
P  7.395462 10.351709  1.462885
P 10.368325 10.368325  4.437037
In  5.917949  5.917949  0.026840
In  8.876115  5.938032  2.959568
In  5.938032  8.876115  2.959568
In  8.867356  8.867356 -0.008578
P  7.381866  7.381866 10.330474
P 10.340354  7.394458  7.394621
P  7.394458 10.340354  7.394621
P 10.353470 10.353470 10.337761
In  5.764898  5.764897  5.676143
In  8.817184  5.908956  8.818339
In  5.908956  8.817184  8.818339
In  8.871355  8.871355  5.921597
%ENDBLOCK POSITIONS_ABS

KPOINT_MP_GRID: 4 4 4
KPOINT_MP_OFFSET: 0.125 0.125 0.125
