# written by ASE

%BLOCK LATTICE_CART
11.801682 -0.000008 -0.000008
-0.000008 11.801682 -0.000008
-0.000008 -0.000008 11.801682
%ENDBLOCK LATTICE_CART

%BLOCK POSITIONS_ABS
P  1.719705  1.719705  4.361621
P  4.481562  1.509669  1.398717
P  1.509669  4.481562  1.398717
In  0.015764  0.015764  0.035467
In  3.053023  0.065154  2.924256
In  0.065154  3.053023  2.924256
In  2.955863  2.955863 -0.053748
P  1.466754  1.466753 10.311197
P  4.496916  1.454180  7.470069
P  1.454180  4.496916  7.470069
P  4.455722  4.455721 10.321168
In  0.142113  0.142113  5.758099
In  2.956945 -0.038046  8.876478
In -0.038045  2.956945  8.876478
In  3.004403  3.004403  6.148281
P  1.521790  7.334572  4.419777
P  4.450546  7.363737  1.534358
P  1.500488 10.374243  1.538411
P  4.445308 10.346271  4.431059
In  0.004715  5.954636 -0.067914
In  3.041618  5.791630  3.004431
In  0.022960  8.848191  2.969797
In  2.961974  8.867827  0.082254
P  1.500935  7.463936 10.323124
P  4.454408  7.336900  7.297818
P  1.486979 10.385255  7.311962
P  4.441266 10.284319 10.335139
In  0.006801  5.925202  5.910107
In  2.988982  5.977936  8.881203
In  0.018834  8.917522  8.821715
In  2.957888  8.853427  5.895624
P  7.334572  1.521790  4.419777
P 10.374243  1.500488  1.538412
P  7.363737  4.450546  1.534358
P 10.346271  4.445308  4.431059
In  5.954636  0.004715 -0.067914
In  8.848191  0.022960  2.969797
In  5.791630  3.041617  3.004431
In  8.867827  2.961974  0.082254
P  7.463936  1.500935 10.323124
P 10.385255  1.486979  7.311962
P  7.336900  4.454408  7.297818
P 10.284320  4.441266 10.335139
In  5.925202  0.006801  5.910107
In  8.917522  0.018834  8.821715
In  5.977936  2.988982  8.881203
In  8.853427  2.957887  5.895624
P  7.381938  7.381938  4.436785
P 10.351872  7.395806  1.463120
P  7.395806 10.351872  1.463120
P 10.368578 10.368578  4.437200
In  5.918618  5.918618  0.026627
In  8.875565  5.938252  2.959344
In  5.938252  8.875565  2.959344
In  8.867528  8.867528 -0.008822
P  7.382107  7.382107 10.329786
P 10.339787  7.395141  7.394937
P  7.395141 10.339787  7.394937
P 10.353444 10.353444 10.337050
In  5.759977  5.759977  5.673000
In  8.816477  5.908486  8.817402
In  5.908486  8.816476  8.817402
In  8.870925  8.870925  5.920941
%ENDBLOCK POSITIONS_ABS

KPOINT_MP_GRID: 4 4 4
KPOINT_MP_OFFSET: 0.125 0.125 0.125
