#######################################################
#CASTEP cell file: /home/eng/phrbqc/GitHub/InPDislocs/Devel/Data_Devel/DFT_Stacking_Fault/CST_Runfiles/StackingFaultStructs_(0_0_1)_(1_0_0)_8/StackingFaultStructs_(0_0_1)_(1_0_0)_8.cell
#Created using the Atomic Simulation Environment (ASE)#
#######################################################

%BLOCK LATTICE_CART
 5.901274  0.000000  0.000000
 0.000000  5.901274  0.000000
 0.000000  5.447329 17.703821
%ENDBLOCK LATTICE_CART

%BLOCK POSITIONS_ABS
In  0.000000  2.950637 14.712682
In  2.950637  2.950637 11.779935
In  2.950637 -0.000000 14.712682
In  2.950637 -0.000000  2.989441
In  2.950637  2.950637  0.053145
In  0.000000 -0.000000  0.053145
In  0.000000  2.950637  2.989441
In  0.000000 -0.000000 11.779935
In  2.950637 -0.000000  8.850285
In  2.950637  2.950637  5.920848
In  0.000000 -0.000000  5.920848
In  0.000000  2.950637  8.850285
P  1.475318  4.425955 16.160189
P  1.475318  1.475318 13.239823
P  4.425955  4.425955 13.239823
P  4.425955  1.475318 16.160189
P  4.425955  1.475318  4.452715
P  4.425955  4.425955  7.384975
P  4.425955  1.475318 10.313913
P  1.475318  4.425955  4.452715
P  1.475318  1.475318  1.513063
P  4.425955  4.425955  1.513063
P  1.475318  1.475318  7.384975
P  1.475318  4.425955 10.313913
%ENDBLOCK POSITIONS_ABS

FIX_ALL_CELL: TRUE
KPOINT_MP_GRID: 6 6 2
KPOINT_MP_OFFSET: 0.08333333333333333 0.08333333333333333 0.25

%BLOCK IONIC_CONSTRAINTS
1 In 1 1 0 0
2 In 1 0 1 0
3 In 2 1 0 0
4 In 2 0 1 0
5 In 3 1 0 0
6 In 3 0 1 0
7 In 4 1 0 0
8 In 4 0 1 0
9 In 5 1 0 0
10 In 5 0 1 0
11 In 6 1 0 0
12 In 6 0 1 0
13 In 7 1 0 0
14 In 7 0 1 0
15 In 8 1 0 0
16 In 8 0 1 0
17 In 9 1 0 0
18 In 9 0 1 0
19 In 10 1 0 0
20 In 10 0 1 0
21 In 11 1 0 0
22 In 11 0 1 0
23 In 12 1 0 0
24 In 12 0 1 0
25 P 1 1 0 0
26 P 1 0 1 0
27 P 2 1 0 0
28 P 2 0 1 0
29 P 3 1 0 0
30 P 3 0 1 0
31 P 4 1 0 0
32 P 4 0 1 0
33 P 5 1 0 0
34 P 5 0 1 0
35 P 6 1 0 0
36 P 6 0 1 0
37 P 7 1 0 0
38 P 7 0 1 0
39 P 8 1 0 0
40 P 8 0 1 0
41 P 9 1 0 0
42 P 9 0 1 0
43 P 10 1 0 0
44 P 10 0 1 0
45 P 11 1 0 0
46 P 11 0 1 0
47 P 12 1 0 0
48 P 12 0 1 0
%ENDBLOCK IONIC_CONSTRAINTS
