#######################################################
#CASTEP cell file: /home/eng/phrbqc/GitHub/InPDislocs/Devel/Data_Devel/EOS/CASTEP_Files/WZ_EOS_0.9657/WZ_EOS_0.9657.cell
#Created using the Atomic Simulation Environment (ASE)#
#######################################################

%BLOCK LATTICE_CART
 4.021824 -0.000042  0.000000
 2.010876  3.483023 -0.000000
 0.000000 -0.000000  6.604705
%ENDBLOCK LATTICE_CART

%BLOCK POSITIONS_ABS
P  2.010878  1.160985 -0.000086
P  4.021819  2.322002  3.302267
In  2.010890  1.160992  2.473086
In  4.021807  2.321995  5.775438
%ENDBLOCK POSITIONS_ABS

KPOINT_MP_GRID: 11 11 7
KPOINT_MP_OFFSET: 0.045455 0.045455 0.071429
