#######################################################
#CASTEP cell file: /home/eng/phrbqc/GitHub/InPDislocs/Devel/Data_Devel/EOS/CASTEP_Files/ZB_EOS_0.923/ZB_EOS_0.923.cell
#Created using the Atomic Simulation Environment (ASE)#
#######################################################

%BLOCK LATTICE_CART
 5.446810  0.000000 -0.000000
 0.000000  5.446810 -0.000000
-0.000000 -0.000000  5.446810
%ENDBLOCK LATTICE_CART

%BLOCK POSITIONS_ABS
P  1.361702  1.361702  4.085107
P  4.085107  1.361702  1.361702
P  1.361702  4.085107  1.361702
P  4.085107  4.085107  4.085107
In  0.000000  0.000000  0.000000
In  2.723405  0.000000  2.723405
In  0.000000  2.723405  2.723405
In  2.723405  2.723405  0.000000
%ENDBLOCK POSITIONS_ABS

KPOINT_MP_GRID: 7 7 7
KPOINT_MP_OFFSET: 0.071429 0.071429 0.071429
