#######################################################
#CASTEP cell file: /home/eng/phrbqc/GitHub/InPDislocs/Devel/Data_Devel/EOS/CASTEP_Files/ZB_EOS_0.9603/ZB_EOS_0.9603.cell
#Created using the Atomic Simulation Environment (ASE)#
#######################################################

%BLOCK LATTICE_CART
 5.666977  0.000000 -0.000000
 0.000000  5.666977 -0.000000
-0.000000 -0.000000  5.666977
%ENDBLOCK LATTICE_CART

%BLOCK POSITIONS_ABS
P  1.416744  1.416744  4.250233
P  4.250233  1.416744  1.416744
P  1.416744  4.250233  1.416744
P  4.250233  4.250233  4.250233
In  0.000000  0.000000  0.000000
In  2.833488  0.000000  2.833488
In  0.000000  2.833488  2.833488
In  2.833488  2.833488  0.000000
%ENDBLOCK POSITIONS_ABS

KPOINT_MP_GRID: 7 7 7
KPOINT_MP_OFFSET: 0.071429 0.071429 0.071429
