#######################################################
#CASTEP cell file: /home/eng/phrbqc/GitHub/InPDislocs/Devel/Data_Devel/EOS/CASTEP_Files/ZB_EOS_1.0776/ZB_EOS_1.0776.cell
#Created using the Atomic Simulation Environment (ASE)#
#######################################################

%BLOCK LATTICE_CART
 6.358929  0.000000 -0.000000
 0.000000  6.358929 -0.000000
-0.000000 -0.000000  6.358929
%ENDBLOCK LATTICE_CART

%BLOCK POSITIONS_ABS
P  1.589732  1.589732  4.769197
P  4.769197  1.589732  1.589732
P  1.589732  4.769197  1.589732
P  4.769197  4.769197  4.769197
In  0.000000  0.000000  0.000000
In  3.179465  0.000000  3.179465
In  0.000000  3.179465  3.179465
In  3.179465  3.179465  0.000000
%ENDBLOCK POSITIONS_ABS

KPOINT_MP_GRID: 7 7 7
KPOINT_MP_OFFSET: 0.071429 0.071429 0.071429
