# written by ASE

%BLOCK LATTICE_CART
14.454049 20.441112  0.000000
14.454049 -20.441112  0.000000
-0.000000  0.000000  4.172525
%ENDBLOCK LATTICE_CART

%BLOCK POSITIONS_ABS
In  9.871102 -2.956764  3.669048
P 10.246237 -0.425154  3.134351
In  6.154602 -2.983526  1.967321
P  5.954544 -0.420140  2.092420
In  8.139155  0.685274  2.474823
P  8.275507  3.157983  2.247956
In 11.513264  0.492049  0.994082
P 11.827107  2.994384  0.429546
In  7.047547  3.963938  0.142792
P  7.145599  6.485553  0.083586
In 10.703148  3.942977  2.484111
P 10.773131  6.465869  2.300836
In  9.569077  7.292170  0.191085
P  9.645546  9.822053  0.029725
In  5.934573  7.296145  2.153015
P 20.465107 -10.615358  2.019287
In  8.434658 10.637061  2.096845
P 22.965216 -7.275175  1.932373
In 12.056751 10.674698  0.092882
P 12.113604 13.217170 -0.015750
In 21.759240 -6.455357  3.995216
P 21.814508 -3.935977  3.883551
In 10.905149 14.053281  2.058377
P 25.380814 -3.843596  2.017804
In 17.100006 -2.981818  3.670763
P 17.372014 -0.445507  3.313938
In 13.511024 -2.989919  1.533703
P 13.830324 -0.455347  1.090914
In 15.042629  0.457554  3.127754
P 15.412060  2.971662  2.616961
In 18.637646  0.409134  1.189631
P 19.030715  2.919303  0.552834
In 14.242414  3.872093  0.511296
P 14.362871  6.419257  0.291633
In 17.850352  3.829006  2.628778
P 17.967614  6.380801  2.378883
In 16.787554  7.256552  0.280086
P 16.877638  9.811023  0.120209
In 13.189168  7.297220  2.358838
P 13.262110  9.836431  2.194638
In 15.682347 10.669063  2.196838
P 15.738854 13.218974  2.094374
In 19.301876 10.656604  0.059009
P 19.380015 13.224819 -0.031189
In 14.527347 14.060186  0.001916
P 14.539328 16.609305 -0.033949
In 18.158339 14.062839  2.054913
P  3.731061 -3.819809  2.025223
In 24.173756 -2.991930  4.095333
P 24.160558 -0.451622  4.291215
In 20.647369 -3.029906  1.785001
P 20.877807 -0.630804  1.080431
In 22.841309  0.349939  2.276352
P 22.748120  2.910411  2.383026
In 26.523990  0.403759  4.163806
P 26.399787  2.953279  0.112243
In 21.484288  3.709988  0.319722
P 21.579974  6.296854  0.168222
In 25.166111  3.779494  2.212318
P 10.750177 -14.099355  2.145416
In  9.536482 -13.249738  4.233098
P  9.623454 -10.676323  4.152151
In 20.402387  7.196731  2.254295
P 20.484627  9.770457  2.147651
In  8.440656 -9.788403  2.065163
P  8.534880 -7.216047  1.976518
In 12.040252 -9.819843  4.063453
P 12.142977 -7.261646  3.904472
In  7.346729 -6.334402  4.067111
P  7.429661 -3.747700  4.029247
In 10.961589 -6.383931  1.806818
P 11.070904 -3.826478  1.600519
In  2.496377 -2.991131  4.118645
P  2.380292 -0.436162  0.020097
In 13.325638 17.452403  2.051326
P 27.724660 -0.439396  2.078948
In  1.192507  0.428379  2.111715
P 15.562047 -17.462867  2.141530
In  4.737347  0.462152  0.011527
P  4.699149  3.008663  0.066631
In 14.345336 -16.621090  4.228819
P 14.379974 -14.070653  4.176723
In  3.494573  3.853041  2.148479
P 17.998860 -14.043995  2.094883
In 16.786853 -13.210980  4.171019
P 16.850143 -10.666100  4.057381
In 13.163141 -13.234064  2.086161
P 13.236197 -10.678554  1.984608
In 15.648348 -9.823888  1.957990
P 15.740639 -7.277885  1.787511
In 19.254128 -9.799675  4.087507
P 19.338785 -7.267380  3.924242
In 14.561286 -6.410404  3.855674
P 14.682429 -3.860580  3.646012
In 18.148038 -6.422592  1.816232
P 18.243646 -3.889014  1.620661
%ENDBLOCK POSITIONS_ABS

KPOINT_MP_GRID: 2 2 8
KPOINT_MP_OFFSET: 0.25 0.25 0.0625
