# written by ASE

%BLOCK LATTICE_CART
14.454049 20.441112  0.000000
14.454049 -20.441112  0.000000
-0.000000  0.000000  4.172525
%ENDBLOCK LATTICE_CART

%BLOCK POSITIONS_ABS
In  9.873167 -2.957811  3.666416
P 10.258863 -0.431094  3.110608
In  6.155562 -2.980074  1.968998
P  5.953506 -0.418220  2.100231
In  8.139719  0.680563  2.495624
P  8.272661  3.154197  2.255470
In 11.515788  0.494039  0.972618
P 11.824420  2.999958  0.431460
In  7.047242  3.963260  0.150102
P  7.145519  6.484661  0.086719
In 10.698197  3.943969  2.487222
P 10.771889  6.466675  2.302003
In  9.568392  7.292975  0.192466
P  9.645328  9.822579  0.030601
In  5.934436  7.295144  2.155931
P 20.464934 -10.616385  2.020049
In  8.434205 10.636630  2.097773
P 22.965363 -7.275841  1.932039
In 12.056559 10.675150  0.093885
P 12.113686 13.217684 -0.015381
In 21.759220 -6.456735  3.994795
P 21.814233 -3.937339  3.884471
In 10.904847 14.053566  2.058731
P 25.380194 -3.843262  2.018343
In 17.099728 -2.982095  3.667534
P 17.372794 -0.445354  3.309188
In 13.510632 -2.987899  1.528700
P 13.832760 -0.453946  1.081069
In 15.043833  0.458516  3.119290
P 15.410513  2.974717  2.618813
In 18.636523  0.409894  1.185516
P 19.030428  2.920027  0.552540
In 14.240743  3.873897  0.513748
P 14.361925  6.420569  0.292883
In 17.849348  3.830130  2.629122
P 17.966793  6.381870  2.380333
In 16.786457  7.257042  0.281777
P 16.877564  9.811651  0.121074
In 13.187963  7.297301  2.360272
P 13.261805  9.836791  2.195635
In 15.682126 10.669502  2.197728
P 15.739486 13.219588  2.094703
In 19.301960 10.657019  0.059538
P 19.381167 13.225449 -0.031076
In 14.527548 14.060529  0.002234
P 14.539278 16.609670 -0.033292
In 18.159268 14.063366  2.055181
P  3.732291 -3.819130  2.025994
In 24.172539 -2.992570  4.096082
P 24.161151 -0.451830  4.285442
In 20.647652 -3.032580  1.786272
P 20.875589 -0.632292  1.086817
In 22.845853  0.351040  2.268403
P 22.748451  2.910574  2.383170
In 26.524801  0.403978  4.164661
P 26.399569  2.953462  0.112564
In 21.484064  3.709285  0.320772
P 21.579200  6.296246  0.168571
In 25.166233  3.779880  2.212279
P 10.749786 -14.099290  2.145275
In  9.535660 -13.249961  4.232833
P  9.623018 -10.676512  4.151819
In 20.401689  7.196490  2.254853
P 20.484502  9.770406  2.148110
In  8.440416 -9.788079  2.064829
P  8.535358 -7.215693  1.975408
In 12.040193 -9.821166  4.062671
P 12.143727 -7.263332  3.901660
In  7.347761 -6.333025  4.065994
P  7.431105 -3.745172  4.030594
In 10.962834 -6.385473  1.803822
P 11.071585 -3.828217  1.597716
In  2.496636 -2.991449  4.119621
P  2.379716 -0.436631  0.023307
In 13.325155 17.452717  2.052028
P 27.724904 -0.439069  2.079896
In  1.192817  0.428226  2.114613
P 15.561979 -17.463286  2.143405
In  4.735933  0.463070  0.018207
P  4.698072  3.009359  0.070907
In 14.345467 -16.621592  4.230374
P 14.379972 -14.071269  4.177549
In  3.494166  3.853024  2.152306
P 17.998698 -14.044336  2.096509
In 16.786835 -13.211347  4.172383
P 16.849884 -10.666600  4.057184
In 13.163056 -13.234868  2.086829
P 13.236183 -10.679583  1.983945
In 15.648100 -9.824279  1.957609
P 15.740518 -7.278394  1.785386
In 19.253951 -9.800602  4.088099
P 19.338724 -7.268327  3.922974
In 14.561486 -6.410227  3.853379
P 14.681805 -3.860490  3.641578
In 18.147881 -6.423448  1.814757
P 18.243193 -3.890162  1.618044
%ENDBLOCK POSITIONS_ABS

KPOINT_MP_GRID: 2 2 8
KPOINT_MP_OFFSET: 0.25 0.25 0.0625
