#######################################################
#CASTEP cell file: /home/eng/phrbqc/GitHub/InPDislocs/Devel/Data_Devel/EOS/CASTEP_Files/WZ_EOS_1.0723/WZ_EOS_1.0723.cell
#Created using the Atomic Simulation Environment (ASE)#
#######################################################

%BLOCK LATTICE_CART
 4.465792 -0.000047  0.000000
 2.232856  3.867512 -0.000000
 0.000000 -0.000000  7.333796
%ENDBLOCK LATTICE_CART

%BLOCK POSITIONS_ABS
P  2.232858  1.289146 -0.000095
P  4.465786  2.578327  3.666803
In  2.232872  1.289154  2.746089
In  4.465773  2.578319  6.412987
%ENDBLOCK POSITIONS_ABS

KPOINT_MP_GRID: 9 9 5
KPOINT_MP_OFFSET: 0.055556 0.055556 0.1
