# written by ASE

%BLOCK LATTICE_CART
11.801682 -0.000008 -0.000008
-0.000008 11.801682 -0.000008
-0.000008 -0.000008 11.801682
%ENDBLOCK LATTICE_CART

%BLOCK POSITIONS_ABS
P  1.544315  1.544314  4.463147
P  4.463125  1.544277  1.544277
P  1.544315  4.463148  1.544314
P  5.595796  5.595946  5.595944
In -0.004335 -0.004333 -0.004333
In  2.956065  0.036113  2.956079
In  0.036122  2.956077  2.956076
In  2.956065  2.956079  0.036113
P  1.483852  1.483852 10.339098
P  4.437684  1.479292  7.350230
P  1.479277  4.437680  7.350226
P  4.409838  4.409834 10.304455
In  0.019606  0.019596  5.886041
In  2.953903  0.005811  8.850427
In  0.005807  2.953897  8.850428
In  3.101712  3.101720  5.864734
P  1.479277  7.350226  4.437680
P  4.437684  7.350230  1.479292
P  1.483852 10.339098  1.483852
P  4.409838 10.304455  4.409834
In  0.019606  5.886041  0.019597
In  3.101714  5.864734  3.101721
In  0.005807  8.850428  2.953897
In  2.953903  8.850427  0.005811
P  1.496634  7.368973 10.307885
P  4.568701  7.116978  7.116978
P  1.496634 10.307886  7.368973
P  4.443291 10.293399 10.293399
In -0.032732  5.888101  5.888101
In  2.985327  5.903344  8.788464
In -0.005419  8.840310  8.840310
In  2.985327  8.788464  5.903343
P  7.350233  1.479284  4.437686
P 10.339102  1.483855  1.483855
P  7.350232  4.437687  1.479284
P 10.304448  4.409837  4.409837
In  5.886038  0.019579  0.019579
In  8.850433  0.005808  2.953902
In  5.864747  3.101618  3.101618
In  8.850433  2.953902  0.005808
P  7.368976  1.496624 10.307892
P 10.307891  1.496622  7.368973
P  7.116980  4.568732  7.117002
P 10.293420  4.443291 10.293416
In  5.888095 -0.032722  5.888101
In  8.840310 -0.005424  8.840310
In  5.903367  2.985336  8.788465
In  8.788463  2.985344  5.903370
P  7.116980  7.117002  4.568731
P 10.307891  7.368973  1.496622
P  7.368976 10.307893  1.496624
P 10.293420 10.293416  4.443291
In  5.888095  5.888102 -0.032722
In  8.788463  5.903369  2.985343
In  5.903367  8.788465  2.985336
In  8.840310  8.840310 -0.005424
P  7.363256  7.363248 10.300134
P 10.300132  7.363258  7.363258
P  7.363255 10.300134  7.363248
P 10.321434 10.321433 10.321432
In  8.752568  5.877310  8.752566
In  5.877331  8.752556  8.752556
In  8.752567  8.752566  5.877310
%ENDBLOCK POSITIONS_ABS

KPOINT_MP_GRID: 4 4 4
KPOINT_MP_OFFSET: 0.125 0.125 0.125
