# written by ASE

%BLOCK LATTICE_CART
11.801682 -0.000008 -0.000008
-0.000008 11.801682 -0.000008
-0.000008 -0.000008 11.801682
%ENDBLOCK LATTICE_CART

%BLOCK POSITIONS_ABS
P  1.543002  1.543002  4.460990
P  4.460988  1.542999  1.542999
P  1.543002  4.460990  1.543002
P  5.593882  5.593894  5.593894
In -0.004243 -0.004243 -0.004243
In  2.955174  0.034230  2.955175
In  0.034231  2.955175  2.955175
In  2.955174  2.955175  0.034230
P  1.483123  1.483123 10.337590
P  4.437727  1.481208  7.347847
P  1.481206  4.437727  7.347847
P  4.410013  4.410012 10.303513
In  0.020182  0.020181  5.886738
In  2.954292  0.006092  8.848745
In  0.006092  2.954291  8.848745
In  3.101192  3.101192  5.859255
P  1.481206  7.347847  4.437727
P  4.437727  7.347847  1.481207
P  1.483123 10.337590  1.483123
P  4.410013 10.303514  4.410012
In  0.020182  5.886738  0.020182
In  3.101192  5.859255  3.101192
In  0.006092  8.848745  2.954291
In  2.954292  8.848745  0.006092
P  1.498241  7.367496 10.306901
P  4.573701  7.119601  7.119601
P  1.498241 10.306901  7.367496
P  4.442702 10.294546 10.294546
In -0.034875  5.888698  5.888698
In  2.988246  5.903441  8.784971
In -0.003580  8.841460  8.841460
In  2.988246  8.784971  5.903441
P  7.347848  1.481207  4.437728
P 10.337591  1.483124  1.483124
P  7.347847  4.437728  1.481207
P 10.303513  4.410013  4.410013
In  5.886738  0.020180  0.020180
In  8.848746  0.006092  2.954292
In  5.859256  3.101184  3.101184
In  8.848746  2.954292  0.006092
P  7.367496  1.498240 10.306902
P 10.306902  1.498240  7.367496
P  7.119602  4.573704  7.119603
P 10.294548  4.442702 10.294548
In  5.888697 -0.034874  5.888698
In  8.841460 -0.003581  8.841460
In  5.903443  2.988247  8.784971
In  8.784971  2.988248  5.903443
P  7.119602  7.119604  4.573703
P 10.306902  7.367496  1.498240
P  7.367496 10.306902  1.498240
P 10.294548 10.294548  4.442702
In  5.888697  5.888698 -0.034874
In  8.784971  5.903443  2.988248
In  5.903443  8.784972  2.988247
In  8.841460  8.841460 -0.003581
P  7.364793  7.364793 10.300763
P 10.300763  7.364793  7.364793
P  7.364793 10.300763  7.364792
P 10.321763 10.321763 10.321763
In  8.754928  5.877521  8.754928
In  5.877522  8.754927  8.754926
In  8.754928  8.754928  5.877521
%ENDBLOCK POSITIONS_ABS

KPOINT_MP_GRID: 4 4 4
KPOINT_MP_OFFSET: 0.125 0.125 0.125
