#######################################################
#CASTEP cell file: /home/eng/phrbqc/GitHub/InPDislocs/Devel/Data_Devel/EOS/CASTEP_Files/ZB_EOS_1.1682/ZB_EOS_1.1682.cell
#Created using the Atomic Simulation Environment (ASE)#
#######################################################

%BLOCK LATTICE_CART
 6.893620  0.000000 -0.000000
 0.000000  6.893620 -0.000000
-0.000000 -0.000000  6.893620
%ENDBLOCK LATTICE_CART

%BLOCK POSITIONS_ABS
P  1.723405  1.723405  5.170215
P  5.170215  1.723405  1.723405
P  1.723405  5.170215  1.723405
P  5.170215  5.170215  5.170215
In  0.000000  0.000000  0.000000
In  3.446810  0.000000  3.446810
In  0.000000  3.446810  3.446810
In  3.446810  3.446810  0.000000
%ENDBLOCK POSITIONS_ABS

KPOINT_MP_GRID: 5 5 5
KPOINT_MP_OFFSET: 0.1 0.1 0.1
