# written by ASE

%BLOCK LATTICE_CART
11.801682 -0.000008 -0.000008
-0.000008 11.801682 -0.000008
-0.000008 -0.000008 11.801682
%ENDBLOCK LATTICE_CART

%BLOCK POSITIONS_ABS
P  1.398289  1.381933  4.403435
P  4.462909  1.357601  1.357601
P  1.398289  4.403435  1.381933
P  3.955410  5.160227  5.160227
P  1.464283  1.456205 10.315727
P  4.411546  1.461336  7.344523
P  1.398276  4.402431  7.423937
P  4.413026  4.402924 10.303770
P  1.398276  7.423937  4.402431
P  4.411546  7.344523  1.461336
P  1.464283 10.315727  1.456205
P  4.413026 10.303770  4.402924
P  1.464276  7.349651 10.291820
P  4.462894  7.448248  7.448248
P  1.464276 10.291820  7.349651
P  4.359889 10.303763 10.303763
P  7.422785  1.417307  4.429883
P 10.315514  1.444868  1.444868
P  7.422785  4.429883  1.417307
P 10.354304  4.402925  4.402925
P  7.364076  1.443369 10.291550
P 10.325886  1.442473  7.363377
P  7.422774  4.375970  7.388541
P 10.278262  4.402921 10.303766
P  7.422774  7.388541  4.375970
P 10.325886  7.363377  1.442473
P  7.364076 10.291550  1.443369
P 10.278262 10.303766  4.402921
P  7.364069  7.362475 10.315984
P 10.315500  7.360983  7.360983
P  7.364069 10.315984  7.362475
P 10.312991 10.303762 10.303762
In -0.006177 -0.028078 -0.028078
In  2.962852 -0.004280  2.912516
In  0.004270  2.913205  2.913205
In  2.962852  2.912516 -0.004280
In -0.047486 -0.072362  5.887579
In  2.919180 -0.008786  8.814650
In -0.047492  2.918284  8.878233
In  2.787759  2.842161  5.963712
In -0.047486  5.887579 -0.072362
In  2.787759  5.963712  2.842161
In -0.047492  8.878233  2.918284
In  2.919180  8.814650 -0.008786
In  0.004260  5.892664  5.892664
In  2.962839  5.893348  8.810148
In -0.006190  8.833944  8.833944
In  2.962839  8.810148  5.893348
In  5.902576 -0.092070 -0.092070
In  8.848887 -0.037029  2.906828
In  6.090550  2.768448  2.768448
In  8.848887  2.906828 -0.037029
In  5.881091 -0.027902  5.877553
In  8.844784 -0.018416  8.824267
In  5.881088  2.928303  8.833761
In  8.889997  2.932160  5.873694
In  5.881091  5.877553 -0.027902
In  8.889997  5.873694  2.932160
In  5.881088  8.833761  2.928303
In  8.844784  8.824267 -0.018416
In  6.090527  6.037399  6.037399
In  8.848874  5.899023  8.842881
In  5.902560  8.897920  8.897920
In  8.848874  8.842881  5.899023
P  3.955418  3.645598  3.645598
%ENDBLOCK POSITIONS_ABS

KPOINT_MP_GRID: 4 4 4
KPOINT_MP_OFFSET: 0.125 0.125 0.125
