#######################################################
#CASTEP cell file: /home/eng/phrbqc/GitHub/InPDislocs/Devel/Data_Devel/EOS/CASTEP_Files/WZ_EOS_1.051/WZ_EOS_1.051.cell
#Created using the Atomic Simulation Environment (ASE)#
#######################################################

%BLOCK LATTICE_CART
 4.376999 -0.000046  0.000000
 2.188460  3.790614 -0.000000
 0.000000 -0.000000  7.187978
%ENDBLOCK LATTICE_CART

%BLOCK POSITIONS_ABS
P  2.188462  1.263514 -0.000093
P  4.376993  2.527062  3.593896
In  2.188476  1.263522  2.691488
In  4.376980  2.527054  6.285477
%ENDBLOCK POSITIONS_ABS

KPOINT_MP_GRID: 9 9 5
KPOINT_MP_OFFSET: 0.055556 0.055556 0.1
