#######################################################
#CASTEP cell file: /home/eng/phrbqc/GitHub/InPDislocs/Devel/Data_Devel/EOS/CASTEP_Files/WZ_EOS_0.9391/WZ_EOS_0.9391.cell
#Created using the Atomic Simulation Environment (ASE)#
#######################################################

%BLOCK LATTICE_CART
 3.910833 -0.000041  0.000000
 1.955381  3.386900 -0.000000
 0.000000 -0.000000  6.422432
%ENDBLOCK LATTICE_CART

%BLOCK POSITIONS_ABS
P  1.955383  1.128945 -0.000083
P  3.910827  2.257921  3.211133
In  1.955395  1.128952  2.404835
In  3.910815  2.257914  5.616051
%ENDBLOCK POSITIONS_ABS

KPOINT_MP_GRID: 11 11 7
KPOINT_MP_OFFSET: 0.045455 0.045455 0.071429
