#######################################################
#CASTEP cell file: /home/eng/phrbqc/GitHub/InPDislocs/Devel/Data_Devel/EOS/CASTEP_Files/ZB_EOS_0.8111/ZB_EOS_0.8111.cell
#Created using the Atomic Simulation Environment (ASE)#
#######################################################

%BLOCK LATTICE_CART
 4.786310  0.000000 -0.000000
 0.000000  4.786310 -0.000000
-0.000000 -0.000000  4.786310
%ENDBLOCK LATTICE_CART

%BLOCK POSITIONS_ABS
P  1.196577  1.196577  3.589732
P  3.589732  1.196577  1.196577
P  1.196577  3.589732  1.196577
P  3.589732  3.589732  3.589732
In  0.000000  0.000000  0.000000
In  2.393155  0.000000  2.393155
In  0.000000  2.393155  2.393155
In  2.393155  2.393155  0.000000
%ENDBLOCK POSITIONS_ABS

KPOINT_MP_GRID: 7 7 7
KPOINT_MP_OFFSET: 0.071429 0.071429 0.071429
