# written by ASE

%BLOCK LATTICE_CART
11.801682 -0.000008 -0.000008
-0.000008 11.801682 -0.000008
-0.000008 -0.000008 11.801682
%ENDBLOCK LATTICE_CART

%BLOCK POSITIONS_ABS
P  1.487098  1.487098  4.433653
P  4.433653  1.487098  1.487098
P  1.487098  4.433653  1.487098
P  4.536147  4.536147  4.536147
In  0.000001  0.000001  0.000001
In  2.957276  0.000320  2.957276
In  0.000320  2.957276  2.957276
In  2.957276  2.957276  0.000320
P  1.476129  1.476129 10.325542
P  4.426750  1.486119  7.374921
P  1.486119  4.426750  7.374921
P  4.426746  4.426746 10.315547
In -0.000003 -0.000003  5.900841
In  2.957271 -0.000329  8.844404
In -0.000329  2.957271  8.844404
In  3.007724  3.007724  5.870325
P  1.486119  7.374921  4.426750
P  4.426750  7.374921  1.486119
P  1.476129 10.325543  1.476129
P  4.426746 10.315548  4.426746
In -0.000003  5.900841 -0.000003
In  3.007724  5.870325  3.007724
In -0.000329  8.844404  2.957271
In  2.957271  8.844404 -0.000329
P  1.487089  7.368019 10.314574
P  4.536138  7.265522  7.265522
P  1.487089 10.314574  7.368019
P  4.433641 10.314570 10.314570
In -0.000007  5.900837  5.900837
In  3.007718  5.931347  8.793949
In  0.000311  8.844400  8.844400
In  3.007718  8.793949  5.931347
P  7.374921  1.486119  4.426750
P 10.325543  1.476129  1.476129
P  7.374921  4.426750  1.486119
P 10.315548  4.426746  4.426746
In  5.900841 -0.000003 -0.000003
In  8.844404 -0.000329  2.957271
In  5.870325  3.007724  3.007724
In  8.844404  2.957271 -0.000329
P  7.368020  1.487089 10.314574
P 10.314574  1.487089  7.368019
P  7.265522  4.536138  7.265522
P 10.314570  4.433640 10.314570
In  5.900837 -0.000007  5.900837
In  8.844400  0.000311  8.844400
In  5.931347  3.007718  8.793949
In  8.793950  3.007718  5.931347
P  7.265522  7.265522  4.536138
P 10.314574  7.368019  1.487089
P  7.368020 10.314574  1.487089
P 10.314570 10.314570  4.433640
In  5.900837  5.900837 -0.000007
In  8.793950  5.931347  3.007718
In  5.931347  8.793950  3.007718
In  8.844400  8.844400  0.000311
P  7.374913  7.374913 10.315543
P 10.315544  7.374913  7.374913
P  7.374913 10.315544  7.374913
P 10.325531 10.325530 10.325530
In  8.793945  5.870316  8.793944
In  5.870316  8.793944  8.793944
In  8.793945  8.793944  5.870316
%ENDBLOCK POSITIONS_ABS

KPOINT_MP_GRID: 4 4 4
KPOINT_MP_OFFSET: 0.125 0.125 0.125
