# written by ASE

%BLOCK LATTICE_CART
11.801682 -0.000008 -0.000008
-0.000008 11.801682 -0.000008
-0.000008 -0.000008 11.801682
%ENDBLOCK LATTICE_CART

%BLOCK POSITIONS_ABS
P  1.453814  1.411123  4.377305
P  4.078554  1.169388  1.168225
P  1.453814  4.378467  1.409961
P  4.241964  4.594090  4.592928
P  1.392047  1.384335 10.200883
P  4.401270  1.426336  7.318445
P  1.413506  4.388849  7.358949
P  4.403584  4.358119 10.265126
P  1.413506  7.360111  4.387687
P  4.401270  7.319607  1.425174
P  1.392047 10.202046  1.383172
P  4.403584 10.266288  4.356957
P  1.447029  7.317607 10.262220
P  4.414721  7.323605  7.322443
P  1.447029 10.263382  7.316445
P  4.418769 10.286807 10.285644
P  7.550823  1.338965  4.462061
P 10.334701  1.411632  1.410469
P  7.550823  4.463223  1.337803
P 10.334962  4.370102  4.368940
P  7.376720  1.427329 10.255210
P 10.312180  1.391298  7.345023
P  7.375482  4.364378  7.330279
P 10.317147  4.396874 10.243965
P  7.375482  7.331441  4.363216
P 10.312180  7.346185  1.390136
P  7.376720 10.256372  1.426166
P 10.317147 10.245127  4.395712
P  7.310630  7.307997 10.278673
P 10.287493  7.326988  7.325826
P  7.310630 10.279835  7.306835
P 10.283652 10.254496 10.253334
In -0.037195 -0.081024 -0.082186
In  2.819314 -0.172629  2.904353
In  0.007933  2.888555  2.887393
In  2.819314  2.905515 -0.173791
In -0.023246 -0.047360  5.841354
In  2.933872 -0.082826  8.783317
In -0.053002  2.896767  8.784649
In  2.877198  2.902218  5.904603
In -0.023246  5.842516 -0.048522
In  2.877198  5.905765  2.901056
In -0.053002  8.785811  2.895604
In  2.933872  8.784479 -0.083988
In -0.026401  5.859166  5.858004
In  2.933758  5.858699  8.792612
In -0.024868  8.791989  8.790827
In  2.933758  8.793774  5.857537
In  5.940395 -0.051257 -0.052419
In  8.912595 -0.116524  2.865235
In  6.420213  2.977949  2.976787
In  8.912595  2.866397 -0.117686
In  5.850518 -0.025085  5.813950
In  8.810689 -0.082517  8.779971
In  5.883382  2.892105  8.788476
In  8.916389  2.925971  5.909918
In  5.850518  5.815112 -0.026247
In  8.916389  5.911080  2.924809
In  5.883382  8.789638  2.890943
In  8.810689  8.781133 -0.083679
In  5.943393  5.877789  5.876627
In  8.812148  5.867312  8.806447
In  5.847166  8.802132  8.800970
In  8.812148  8.807609  5.866150
P  4.061723  2.757416  2.756254
%ENDBLOCK POSITIONS_ABS

KPOINT_MP_GRID: 4 4 4
KPOINT_MP_OFFSET: 0.125 0.125 0.125
