# written by ASE

%BLOCK LATTICE_CART
11.801682 -0.000008 -0.000008
-0.000008 11.801682 -0.000008
-0.000008 -0.000008 11.801682
%ENDBLOCK LATTICE_CART

%BLOCK POSITIONS_ABS
P  1.454622  1.410857  4.378053
P  4.082515  1.169156  1.167994
P  1.454622  4.379216  1.409695
P  4.245119  4.594866  4.593704
P  1.390553  1.384179 10.201647
P  4.400963  1.425707  7.319518
P  1.412329  4.388337  7.358167
P  4.402836  4.358735 10.264008
P  1.412329  7.359330  4.387175
P  4.400963  7.320680  1.424545
P  1.390553 10.202809  1.383017
P  4.402836 10.265170  4.357573
P  1.447078  7.317663 10.262378
P  4.414463  7.323912  7.322750
P  1.447078 10.263540  7.316501
P  4.418599 10.286626 10.285464
P  7.551113  1.338370  4.462251
P 10.334587  1.412273  1.411111
P  7.551113  4.463413  1.337208
P 10.335756  4.369254  4.368092
P  7.377382  1.427343 10.254606
P 10.311958  1.391462  7.344892
P  7.375992  4.364311  7.331689
P 10.317086  4.396533 10.244165
P  7.375992  7.332851  4.363148
P 10.311958  7.346054  1.390300
P  7.377382 10.255768  1.426180
P 10.317086 10.245327  4.395371
P  7.310713  7.308734 10.277988
P 10.287152  7.327284  7.326122
P  7.310713 10.279150  7.307571
P 10.282800 10.253827 10.252665
In -0.040027 -0.081470 -0.082632
In  2.819204 -0.173348  2.903477
In  0.011669  2.888183  2.887021
In  2.819204  2.904639 -0.174510
In -0.024186 -0.047678  5.841667
In  2.933253 -0.082646  8.784165
In -0.053485  2.896664  8.784656
In  2.878123  2.902005  5.904673
In -0.024186  5.842829 -0.048840
In  2.878123  5.905835  2.900843
In -0.053485  8.785818  2.895502
In  2.933253  8.785327 -0.083808
In -0.027960  5.859014  5.857851
In  2.932739  5.858600  8.791681
In -0.024241  8.791937  8.790775
In  2.932739  8.792844  5.857438
In  5.942368 -0.052410 -0.053572
In  8.912370 -0.116330  2.865036
In  6.420908  2.978884  2.977722
In  8.912370  2.866198 -0.117492
In  5.850498 -0.026244  5.814912
In  8.810493 -0.082462  8.779283
In  5.882399  2.891760  8.789503
In  8.916442  2.926163  5.909733
In  5.850498  5.816074 -0.027406
In  8.916442  5.910895  2.925001
In  5.882399  8.790665  2.890598
In  8.810493  8.780445 -0.083624
In  5.945601  5.879135  5.877973
In  8.812249  5.867351  8.807187
In  5.846649  8.802234  8.801072
In  8.812249  8.808349  5.866189
P  4.061464  2.758081  2.756919
%ENDBLOCK POSITIONS_ABS

KPOINT_MP_GRID: 4 4 4
KPOINT_MP_OFFSET: 0.125 0.125 0.125
