# written by ASE

%BLOCK LATTICE_CART
14.454049 20.441112  0.000000
14.454049 -20.441112  0.000000
-0.000000  0.000000  4.172525
%ENDBLOCK LATTICE_CART

%BLOCK POSITIONS_ABS
In  9.164769 -3.150779  0.169594
P  8.416726 -0.695625  0.603967
In  5.763753 -3.156690  1.834643
P  6.310327 -0.666807  1.442702
In  9.548977  0.360993  2.589385
P  8.950854  2.853253  2.236112
In 13.230288  0.413863  0.246304
P 12.595540  2.929780  0.134022
In  7.646418  3.654465  0.111141
P  7.437581  6.255181  0.070504
In 11.342792  3.784640  2.209101
P 11.069058  6.345055  2.150984
In  9.814002  7.188728  0.062251
P  9.639242  9.775871  0.044240
In  6.225708  7.170655  2.146436
P 20.508720 -10.681770  2.134113
In  8.431656 10.680457  2.131043
P 22.714517 -7.173191  2.129984
In 12.024143 10.665347  0.017761
P 11.879716 13.235515 -0.004677
In 21.484654 -6.286600  0.048519
P 21.323210 -3.677326  0.058192
In 10.669511 14.120186  2.082527
P 25.038162 -3.750283  2.063619
In 16.324881 -2.960558  0.099021
P 15.718621 -0.441576  0.164791
In 12.722449 -2.970531  2.212349
P 12.059306 -0.473246  2.350280
In 16.841161  0.462125  2.246100
P 16.164858  2.965692  2.183994
In 20.403724  0.661982  0.295248
P 19.687006  3.114071  0.046357
In 14.959675  3.846901  0.094962
P 14.683690  6.389578  0.040850
In 18.489905  3.936574  2.126648
P 18.283991  6.465566  2.094570
In 17.048692  7.279754  0.008136
P 16.839749  9.810882 -0.016721
In 13.446764  7.240720  2.125625
P 13.245404  9.798102  2.103402
In 15.629286 10.666818  2.069834
P 15.487027 13.213737  2.042526
In 19.221884 10.655272 -0.046077
P 19.056041 13.175254 -0.078639
In 14.285833 14.077329 -0.043312
P 14.234559 16.637481 -0.080639
In 17.881344 14.052294  2.006791
P  3.348780 -3.848546  1.967141
In 23.801083 -2.887324 -0.017589
P 24.085219 -0.323242 -0.211546
In 19.977158 -2.896625  2.157550
P 19.317804 -0.386959  2.358389
In 22.962948  0.731652  1.847192
P 23.223758  3.255748  2.063801
In 26.536377  0.454184 -0.142326
P 12.321838 -17.429321 -0.085847
In 22.018337  4.085374 -0.014353
P 21.878080  6.591003 -0.042092
In 25.661578  3.945261  2.003910
P 11.057886 -13.966590  2.014241
In  9.855149 -13.136309 -0.071188
P  9.675283 -10.619024 -0.070076
In 20.647078  7.362627  2.047013
P 20.462555  9.873322  2.039180
In  8.438504 -9.839959  2.012900
P  8.253530 -7.327765  1.978368
In 12.072989 -9.792072 -0.015453
P 11.852394 -7.264591  0.034820
In  7.024526 -6.561351 -0.120554
P  6.866403 -4.064161 -0.227855
In 10.623081 -6.458371  2.124252
P 10.395348 -3.936270  2.243947
In 16.646157 17.484591 -0.118039
P  2.538420 -0.427296 -0.231601
In 13.033604 17.498980  2.007182
P 27.741754 -0.395886  1.940432
In  1.291753  0.409367  1.874309
P 15.938667 -17.478198  1.974156
In  5.021896  0.343124 -0.501821
P  5.176959  2.888272 -0.148842
In 14.745358 -16.610297 -0.102961
P 14.645814 -14.050551 -0.059840
In  3.933834  3.771220  1.947037
P 18.263681 -14.100852  2.038303
In 17.056329 -13.219678 -0.045757
P 16.900887 -10.651154  0.004918
In 13.465575 -13.159916  2.030040
P 13.294908 -10.622021  2.069160
In 15.690015 -9.777481  2.092868
P 15.458577 -7.227328  2.136463
In 19.298027 -9.786140  0.045722
P 19.100906 -7.204844  0.060847
In 14.223288 -6.382018  0.053662
P 13.952300 -3.837512  0.116126
In 17.847987 -6.366535  2.149977
P 17.596348 -3.807229  2.175860
%ENDBLOCK POSITIONS_ABS

KPOINT_MP_GRID: 2 2 8
KPOINT_MP_OFFSET: 0.25 0.25 0.0625
