# written by ASE

%BLOCK LATTICE_CART
14.454049 20.441112  0.000000
14.454049 -20.441112  0.000000
-0.000000  0.000000  4.172525
%ENDBLOCK LATTICE_CART

%BLOCK POSITIONS_ABS
In  9.169175 -3.155399  0.161350
P  8.423566 -0.699713  0.581669
In  5.769120 -3.148390  1.841406
P  6.319286 -0.660380  1.445756
In  9.539229  0.359107  2.573836
P  8.947242  2.852852  2.225671
In 13.216595  0.414202  0.254210
P 12.590938  2.931823  0.135574
In  7.643961  3.656043  0.101563
P  7.437470  6.256564  0.068469
In 11.339109  3.787116  2.210497
P 11.068177  6.347671  2.153415
In  9.813731  7.191167  0.064555
P  9.639172  9.778137  0.046340
In  6.225695  7.171673  2.144685
P 20.508952 -10.680899  2.133933
In  8.431431 10.682572  2.133089
P 22.714003 -7.171357  2.133249
In 12.025014 10.665704  0.019889
P 11.881667 13.235417 -0.001076
In 21.482917 -6.285356  0.051904
P 21.323720 -3.675133  0.063296
In 10.670959 14.118012  2.086589
P 25.042388 -3.753391  2.070341
In 16.325786 -2.956335  0.101099
P 15.706237 -0.439554  0.170985
In 12.722608 -2.971978  2.210724
P 12.051627 -0.476193  2.357641
In 16.829631  0.464518  2.252571
P 16.163968  2.970409  2.187184
In 20.398322  0.661082  0.312009
P 19.686299  3.115016  0.050890
In 14.957287  3.847621  0.098160
P 14.682465  6.390632  0.043050
In 18.490813  3.938841  2.130965
P 18.283263  6.467577  2.096796
In 17.047859  7.280867  0.010235
P 16.839424  9.812386 -0.016255
In 13.446736  7.241567  2.127697
P 13.246014  9.799106  2.105423
In 15.629652 10.669507  2.070276
P 15.488400 13.216684  2.041379
In 19.223129 10.653134 -0.046977
P 19.057711 13.173642 -0.079881
In 14.287139 14.080327 -0.044508
P 14.237999 16.640526 -0.082583
In 17.884290 14.052060  2.005404
P  3.353975 -3.847924  1.967169
In 23.804430 -2.892582 -0.010234
P 24.089518 -0.328622 -0.198126
In 19.976861 -2.890937  2.163052
P 19.303548 -0.384407  2.373462
In 22.965183  0.725337  1.860861
P 23.226398  3.250645  2.067555
In 26.535554  0.454686 -0.155275
P 12.322075 -17.429137 -0.091600
In 22.019927  4.080327 -0.011168
P 21.879308  6.586295 -0.041068
In 25.662366  3.946646  1.998401
P 11.058729 -13.965240  2.009191
In  9.854771 -13.136720 -0.076078
P  9.675518 -10.619451 -0.072539
In 20.648560  7.358595  2.048167
P 20.463281  9.869754  2.038321
In  8.438223 -9.841145  2.010722
P  8.253306 -7.328928  1.977193
In 12.074171 -9.794637 -0.017819
P 11.853681 -7.267394  0.032483
In  7.025433 -6.560869 -0.121661
P  6.866785 -4.063695 -0.222493
In 10.623837 -6.463384  2.121713
P 10.398259 -3.941697  2.236067
In 16.651895 17.484626 -0.118084
P  2.538447 -0.427094 -0.240989
In 13.036390 17.501500  2.005121
P 27.741857 -0.393747  1.927945
In  1.292448  0.408917  1.863792
P 15.939678 -17.479186  1.969310
In  5.024472  0.340631 -0.499688
P  5.175489  2.887471 -0.149288
In 14.745513 -16.611764 -0.107739
P 14.646875 -14.052158 -0.063403
In  3.934228  3.770515  1.946279
P 18.264376 -14.101449  2.036806
In 17.056983 -13.220451 -0.047246
P 16.901451 -10.651815  0.004045
In 13.467206 -13.161170  2.026458
P 13.296418 -10.623596  2.066830
In 15.690940 -9.777658  2.091968
P 15.458641 -7.227595  2.136076
In 19.298031 -9.785751  0.045516
P 19.099920 -7.204518  0.061647
In 14.223592 -6.381981  0.053182
P 13.953982 -3.837429  0.114790
In 17.847218 -6.365173  2.150611
P 17.596980 -3.805679  2.177860
%ENDBLOCK POSITIONS_ABS

KPOINT_MP_GRID: 2 2 8
KPOINT_MP_OFFSET: 0.25 0.25 0.0625
