#######################################################
#CASTEP cell file: /home/eng/phrbqc/GitHub/InPDislocs/Devel/Data_Devel/send_to_hpc/Sulis/ZB_Bulk/ZB_Bulk.cell
#Created using the Atomic Simulation Environment (ASE)#
#######################################################

%BLOCK LATTICE_CART
 5.901274  0.000000 -0.000000
 0.000000  5.901274 -0.000000
-0.000000 -0.000000  5.901274
%ENDBLOCK LATTICE_CART

%BLOCK POSITIONS_ABS
P  1.475318  1.475318  4.425955
P  4.425955  1.475318  1.475318
P  1.475318  4.425955  1.475318
P  4.425955  4.425955  4.425955
In  0.000000  0.000000  0.000000
In  2.950637  0.000000  2.950637
In  0.000000  2.950637  2.950637
In  2.950637  2.950637  0.000000
%ENDBLOCK POSITIONS_ABS

KPOINT_MP_GRID: 8 8 8
KPOINT_MP_OFFSET: 0.08333333333333333 0.08333333333333333 0.08333333333333333
