#######################################################
#CASTEP cell file: /home/eng/phrbqc/GitHub/InPDislocs/Devel/Data_Devel/EOS/CASTEP_Files/ZB_EOS_1.0509/ZB_EOS_1.0509.cell
#Created using the Atomic Simulation Environment (ASE)#
#######################################################

%BLOCK LATTICE_CART
 6.201667  0.000000 -0.000000
 0.000000  6.201667 -0.000000
-0.000000 -0.000000  6.201667
%ENDBLOCK LATTICE_CART

%BLOCK POSITIONS_ABS
P  1.550417  1.550417  4.651250
P  4.651250  1.550417  1.550417
P  1.550417  4.651250  1.550417
P  4.651250  4.651250  4.651250
In  0.000000  0.000000  0.000000
In  3.100834  0.000000  3.100834
In  0.000000  3.100834  3.100834
In  3.100834  3.100834  0.000000
%ENDBLOCK POSITIONS_ABS

KPOINT_MP_GRID: 7 7 7
KPOINT_MP_OFFSET: 0.071429 0.071429 0.071429
