# written by ASE

%BLOCK LATTICE_CART
11.801682 -0.000008 -0.000008
-0.000008 11.801682 -0.000008
-0.000008 -0.000008 11.801682
%ENDBLOCK LATTICE_CART

%BLOCK POSITIONS_ABS
P  1.331701  1.453606  4.536539
P  4.142790  1.830490  2.506070
P  1.482386  4.383030  1.428606
P  4.458309  4.485026  4.469691
P  1.368982  1.446903 10.157735
P  4.413259  1.459814  7.328304
P  1.466512  4.415928  7.332201
P  4.434893  4.423560 10.272891
P  1.459764  7.329412  4.370839
P  4.410671  7.370387  1.441761
P  1.437684 10.290662  1.470261
P  4.423597 10.219660  4.483128
P  1.463181  7.374607 10.331199
P  4.380074  7.327064  7.377475
P  1.427255 10.274579  7.343323
P  4.422738 10.235243 10.175346
P  7.469434  1.445778  4.465555
P 10.343600  1.457923  1.441649
P  7.430606  4.463562  1.407755
P 10.330614  4.410353  4.394475
P  7.409421  1.502105 10.256400
P 10.257569  1.448307  7.381780
P  7.377333  4.434278  7.346851
P 10.327050  4.427811 10.293312
P  7.364406  7.373101  4.398151
P 10.301443  7.351114  1.439945
P  7.356907 10.326170  1.448956
P 10.298721 10.285485  4.382095
P  7.367198  7.368187 10.296783
P 10.312312  7.359928  7.347232
P  7.361611 10.312493  7.338083
P 10.316496 10.304858 10.322946
In  0.019603 -0.004894 -0.040880
In  2.742652 -0.191340  3.216809
In  0.011276  2.923462  2.927795
In  2.826395  2.971003 -0.219262
In -0.120008 -0.058103  5.945692
In  2.926806 -0.040648  8.777238
In -0.065955  2.964216  8.754171
In  2.954755  2.940958  5.845102
In -0.002776  5.884339 -0.006804
In  2.970398  5.855970  2.915071
In -0.032570  8.800404  2.910562
In  2.964122  8.879145 -0.032313
In -0.008200  5.888737  5.871205
In  2.902402  5.880214  8.848159
In -0.024534  8.818907  8.846598
In  2.900432  8.764846  5.907863
In  6.017126 -0.133413 -0.237850
In  8.862532 -0.008650  2.906930
In  6.158244  3.119912  3.110095
In  8.887237  2.931305 -0.032866
In  5.886169 -0.003279  5.852433
In  8.835876 -0.049580  8.839330
In  5.892936  2.943921  8.787872
In  8.882450  2.962891  5.909282
In  5.878683  5.908900 -0.033878
In  8.866173  5.909601  2.947771
In  5.881465  8.834503  2.915365
In  8.835567  8.836604 -0.015598
In  5.896908  5.945692  5.919072
In  8.842138  5.893230  8.834636
In  5.902932  8.782464  8.759511
In  8.833893  8.838507  5.875355
P  3.923625  0.865767  0.655039
%ENDBLOCK POSITIONS_ABS

KPOINT_MP_GRID: 4 4 4
KPOINT_MP_OFFSET: 0.125 0.125 0.125
