# written by ASE

%BLOCK LATTICE_CART
11.801682 -0.000008 -0.000008
-0.000008 11.801682 -0.000008
-0.000008 -0.000008 11.801682
%ENDBLOCK LATTICE_CART

%BLOCK POSITIONS_ABS
P  1.331149  1.453795  4.535693
P  4.140356  1.831633  2.507571
P  1.481395  4.383167  1.429141
P  4.458493  4.486057  4.470022
P  1.370319  1.447612 10.158434
P  4.413773  1.460308  7.327240
P  1.467099  4.415257  7.331539
P  4.434720  4.423326 10.273268
P  1.460507  7.329508  4.370649
P  4.410734  7.370327  1.441397
P  1.437563 10.291939  1.470905
P  4.424260 10.218704  4.484258
P  1.463351  7.374072 10.331334
P  4.380528  7.326154  7.377728
P  1.427238 10.274763  7.343179
P  4.421295 10.233686 10.173031
P  7.470288  1.446979  4.466199
P 10.343306  1.457667  1.440682
P  7.428109  4.462815  1.408297
P 10.330187  4.410597  4.394553
P  7.409265  1.500872 10.255417
P 10.258785  1.448612  7.381790
P  7.377486  4.434222  7.347916
P 10.326404  4.427483 10.293910
P  7.365480  7.372376  4.398277
P 10.301115  7.351303  1.440101
P  7.354825 10.327072  1.449229
P 10.298422 10.285646  4.381651
P  7.368457  7.369317 10.296852
P 10.313068  7.360207  7.347221
P  7.361792 10.312909  7.337429
P 10.315721 10.304783 10.323239
In  0.019326 -0.005301 -0.042401
In  2.743162 -0.192237  3.218800
In  0.009885  2.923880  2.927628
In  2.827500  2.971688 -0.215913
In -0.119632 -0.058134  5.945371
In  2.926860 -0.039336  8.776102
In -0.065042  2.964499  8.754816
In  2.955516  2.940217  5.842933
In -0.002948  5.884228 -0.006636
In  2.970479  5.854886  2.914465
In -0.032147  8.800546  2.910504
In  2.963209  8.879503 -0.031590
In -0.007668  5.888813  5.871094
In  2.902404  5.879309  8.847895
In -0.024245  8.819247  8.847121
In  2.900743  8.764463  5.908970
In  6.015986 -0.136069 -0.241154
In  8.861980 -0.008118  2.906613
In  6.156164  3.119828  3.112024
In  8.885141  2.930963 -0.032528
In  5.887007 -0.002456  5.851575
In  8.836592 -0.049482  8.838164
In  5.892619  2.943570  8.788709
In  8.882783  2.963381  5.910373
In  5.879248  5.910507 -0.035426
In  8.865663  5.908462  2.946781
In  5.881905  8.832616  2.916303
In  8.834940  8.837953 -0.013718
In  5.897890  5.945557  5.919683
In  8.842992  5.893679  8.834490
In  5.903851  8.781926  8.758334
In  8.834489  8.838535  5.875516
P  3.925128  0.866721  0.653790
%ENDBLOCK POSITIONS_ABS

KPOINT_MP_GRID: 4 4 4
KPOINT_MP_OFFSET: 0.125 0.125 0.125
