#######################################################
#CASTEP cell file: /home/eng/phrbqc/GitHub/InPDislocs/Devel/Data_Devel/DFT_Stacking_Fault/CST_Runfiles/StackingFaultStructs_(1_1_1)_(1_1_-2)_6/StackingFaultStructs_(1_1_1)_(1_1_-2)_6.cell
#Created using the Atomic Simulation Environment (ASE)#
#######################################################

%BLOCK LATTICE_CART
 8.345661 -0.000000  0.000000
-0.000000 14.455109 -0.000000
 0.000000  5.003692 10.221306
%ENDBLOCK LATTICE_CART

%BLOCK POSITIONS_ABS
In  4.172831 12.045924  6.728743
In  6.259246  1.204592  6.728743
In  2.086415 10.841332  0.124092
In  6.259246 10.841332  0.124092
In  2.086415  1.204592  6.728743
In  4.172831  4.818370  6.728743
In  4.172831  7.227555  0.124092
In  2.086415 13.250517  3.452456
In  4.172831  9.636739  3.452456
In  6.259246  3.613777  0.124092
In  6.259246  6.022962  3.452456
In  0.000000  2.409185  3.452456
In -0.000000 -0.000000  0.124092
In  0.000000  9.636739  3.452456
In  2.086415  8.432147  6.728743
In -0.000000  7.227555  0.124092
In  2.086415  3.613777  0.124092
In  0.000000 12.045924  6.728743
In  0.000000  4.818370  6.728743
In  6.259246 13.250517  3.452456
In  2.086415  6.022962  3.452456
In  4.172831 -0.000000  0.124092
In  4.172831  2.409185  3.452456
In  6.259246  8.432147  6.728743
P  0.000000  7.227555  7.589035
P  0.000000 12.045924  4.212648
P  2.086415 10.841332  7.589035
P  6.259246 10.841332  7.589035
P  2.086415  3.613777  7.589035
P  6.259246  3.613777  7.589035
P  4.172831  2.409185  0.890963
P  4.172831  7.227555  7.589035
P -0.000000  9.636739  0.890963
P  0.000000  2.409185  0.890963
P  2.086415  6.022962  0.890963
P  0.000000  4.818370  4.212648
P  2.086415  1.204592  4.212648
P  0.000000 -0.000000  7.589035
P  4.172831 -0.000000  7.589035
P  6.259246  6.022962  0.890963
P  4.172831  9.636739  0.890963
P  6.259246 13.250517  0.890963
P  2.086415 13.250517  0.890963
P  4.172831 12.045924  4.212648
P  4.172831  4.818370  4.212648
P  6.259246  8.432147  4.212648
P  6.259246  1.204592  4.212648
P  2.086415  8.432147  4.212648
%ENDBLOCK POSITIONS_ABS

FIX_ALL_CELL: TRUE
KPOINT_MP_GRID: 4 4 4
KPOINT_MP_OFFSET: 0.125 0.125 0.125

%BLOCK IONIC_CONSTRAINTS
1 In 1 1 0 0
2 In 1 0 1 0
3 In 2 1 0 0
4 In 2 0 1 0
5 In 3 1 0 0
6 In 3 0 1 0
7 In 4 1 0 0
8 In 4 0 1 0
9 In 5 1 0 0
10 In 5 0 1 0
11 In 6 1 0 0
12 In 6 0 1 0
13 In 7 1 0 0
14 In 7 0 1 0
15 In 8 1 0 0
16 In 8 0 1 0
17 In 9 1 0 0
18 In 9 0 1 0
19 In 10 1 0 0
20 In 10 0 1 0
21 In 11 1 0 0
22 In 11 0 1 0
23 In 12 1 0 0
24 In 12 0 1 0
25 In 13 1 0 0
26 In 13 0 1 0
27 In 14 1 0 0
28 In 14 0 1 0
29 In 15 1 0 0
30 In 15 0 1 0
31 In 16 1 0 0
32 In 16 0 1 0
33 In 17 1 0 0
34 In 17 0 1 0
35 In 18 1 0 0
36 In 18 0 1 0
37 In 19 1 0 0
38 In 19 0 1 0
39 In 20 1 0 0
40 In 20 0 1 0
41 In 21 1 0 0
42 In 21 0 1 0
43 In 22 1 0 0
44 In 22 0 1 0
45 In 23 1 0 0
46 In 23 0 1 0
47 In 24 1 0 0
48 In 24 0 1 0
49 P 1 1 0 0
50 P 1 0 1 0
51 P 2 1 0 0
52 P 2 0 1 0
53 P 3 1 0 0
54 P 3 0 1 0
55 P 4 1 0 0
56 P 4 0 1 0
57 P 5 1 0 0
58 P 5 0 1 0
59 P 6 1 0 0
60 P 6 0 1 0
61 P 7 1 0 0
62 P 7 0 1 0
63 P 8 1 0 0
64 P 8 0 1 0
65 P 9 1 0 0
66 P 9 0 1 0
67 P 10 1 0 0
68 P 10 0 1 0
69 P 11 1 0 0
70 P 11 0 1 0
71 P 12 1 0 0
72 P 12 0 1 0
73 P 13 1 0 0
74 P 13 0 1 0
75 P 14 1 0 0
76 P 14 0 1 0
77 P 15 1 0 0
78 P 15 0 1 0
79 P 16 1 0 0
80 P 16 0 1 0
81 P 17 1 0 0
82 P 17 0 1 0
83 P 18 1 0 0
84 P 18 0 1 0
85 P 19 1 0 0
86 P 19 0 1 0
87 P 20 1 0 0
88 P 20 0 1 0
89 P 21 1 0 0
90 P 21 0 1 0
91 P 22 1 0 0
92 P 22 0 1 0
93 P 23 1 0 0
94 P 23 0 1 0
95 P 24 1 0 0
96 P 24 0 1 0
%ENDBLOCK IONIC_CONSTRAINTS
