# written by ASE

%BLOCK LATTICE_CART
11.801682 -0.000008 -0.000008
-0.000008 11.801682 -0.000008
-0.000008 -0.000008 11.801682
%ENDBLOCK LATTICE_CART

%BLOCK POSITIONS_ABS
P  2.142188  2.142188  4.112135
P  4.497844  1.467636  1.327573
P  1.467636  4.497844  1.327573
In  0.009545  0.009545  0.050803
In  3.067815  0.099404  2.935937
In  0.099404  3.067815  2.935937
In  2.951109  2.951109 -0.068973
P  1.453129  1.453128 10.311127
P  4.505720  1.429149  7.512570
P  1.429149  4.505720  7.512570
P  4.457671  4.457671 10.322587
In  0.120813  0.120813  5.747544
In  2.947451 -0.061425  8.895706
In -0.061425  2.947451  8.895706
In  2.930873  2.930873  6.294131
P  1.512071  7.321010  4.424251
P  4.440760  7.353173  1.550536
P  1.497962 10.392090  1.575701
P  4.432045 10.353464  4.435966
In -0.018536  5.967819 -0.112906
In  2.982883  5.772338  2.961678
In  0.013985  8.833852  2.973668
In  2.957878  8.871388  0.114886
P  1.502598  7.484844 10.323641
P  4.449821  7.335674  7.297575
P  1.487865 10.382030  7.302895
P  4.431841 10.256274 10.335551
In -0.004724  5.919056  5.921343
In  2.992657  5.987256  8.895559
In  0.011191  8.918828  8.822327
In  2.954621  8.844368  5.890988
P  7.321010  1.512070  4.424251
P 10.392090  1.497962  1.575701
P  7.353173  4.440760  1.550536
P 10.353464  4.432045  4.435966
In  5.967819 -0.018536 -0.112906
In  8.833852  0.013985  2.973668
In  5.772339  2.982883  2.961678
In  8.871388  2.957878  0.114886
P  7.484844  1.502598 10.323641
P 10.382030  1.487865  7.302895
P  7.335674  4.449821  7.297575
P 10.256275  4.431841 10.335551
In  5.919056 -0.004724  5.921343
In  8.918829  0.011191  8.822327
In  5.987256  2.992656  8.895560
In  8.844369  2.954621  5.890988
P  7.387614  7.387614  4.429394
P 10.347842  7.385676  1.458484
P  7.385676 10.347842  1.458484
P 10.345881 10.345881  4.430174
In  5.914090  5.914090  0.041144
In  8.878321  5.925406  2.962233
In  5.925406  8.878321  2.962233
In  8.860993  8.860993 -0.003901
P  7.374341  7.374340 10.337147
P 10.332764  7.389610  7.405045
P  7.389610 10.332763  7.405045
P 10.349710 10.349710 10.344517
In  5.781551  5.781551  5.680563
In  8.802326  5.903124  8.819177
In  5.903124  8.802326  8.819177
In  8.858771  8.858770  5.931863
%ENDBLOCK POSITIONS_ABS

KPOINT_MP_GRID: 4 4 4
KPOINT_MP_OFFSET: 0.125 0.125 0.125
