# written by ASE

%BLOCK LATTICE_CART
11.801682 -0.000008 -0.000008
-0.000008 11.801682 -0.000008
-0.000008 -0.000008 11.801682
%ENDBLOCK LATTICE_CART

%BLOCK POSITIONS_ABS
P  2.144659  2.144659  4.107023
P  4.497940  1.468149  1.327971
P  1.468149  4.497940  1.327971
In  0.010842  0.010842  0.051700
In  3.067175  0.098395  2.934887
In  0.098396  3.067175  2.934887
In  2.951673  2.951673 -0.068107
P  1.453935  1.453935 10.311451
P  4.504790  1.429121  7.512581
P  1.429121  4.504790  7.512581
P  4.457369  4.457369 10.321713
In  0.119090  0.119090  5.747606
In  2.947412 -0.062283  8.896723
In -0.062282  2.947412  8.896723
In  2.927866  2.927866  6.292782
P  1.511285  7.323516  4.424778
P  4.441977  7.355141  1.549983
P  1.497625 10.390836  1.575312
P  4.430869 10.352910  4.436019
In -0.017858  5.966968 -0.112288
In  2.981078  5.778340  2.959028
In  0.012546  8.833386  2.973374
In  2.957821  8.871289  0.113517
P  1.502363  7.484320 10.323442
P  4.450991  7.336486  7.298567
P  1.486850 10.380749  7.304684
P  4.432351 10.256120 10.335850
In -0.003052  5.916709  5.919965
In  2.992420  5.987281  8.894567
In  0.009947  8.917853  8.823492
In  2.954699  8.843733  5.893287
P  7.323516  1.511285  4.424778
P 10.390836  1.497625  1.575313
P  7.355141  4.441977  1.549983
P 10.352910  4.430869  4.436019
In  5.966968 -0.017858 -0.112288
In  8.833386  0.012546  2.973374
In  5.778340  2.981078  2.959028
In  8.871289  2.957821  0.113518
P  7.484320  1.502363 10.323442
P 10.380749  1.486850  7.304684
P  7.336486  4.450991  7.298567
P 10.256120  4.432351 10.335851
In  5.916709 -0.003052  5.919966
In  8.917853  0.009946  8.823492
In  5.987281  2.992420  8.894567
In  8.843733  2.954698  5.893287
P  7.388183  7.388183  4.428988
P 10.348000  7.385437  1.458010
P  7.385437 10.348000  1.458010
P 10.344748 10.344748  4.430111
In  5.912928  5.912928  0.041595
In  8.879529  5.926304  2.962824
In  5.926304  8.879529  2.962824
In  8.860941  8.860941 -0.003829
P  7.374053  7.374053 10.338123
P 10.333740  7.388306  7.404318
P  7.388306 10.333740  7.404318
P 10.350056 10.350056 10.345886
In  5.784098  5.784097  5.681385
In  8.802960  5.904055  8.819960
In  5.904055  8.802960  8.819960
In  8.858305  8.858305  5.932896
%ENDBLOCK POSITIONS_ABS

KPOINT_MP_GRID: 4 4 4
KPOINT_MP_OFFSET: 0.125 0.125 0.125
