# written by ASE

%BLOCK LATTICE_CART
11.801682 -0.000008 -0.000008
-0.000008 11.801682 -0.000008
-0.000008 -0.000008 11.801682
%ENDBLOCK LATTICE_CART

%BLOCK POSITIONS_ABS
P  1.399414  1.381054  4.402888
P  4.464135  1.359357  1.359357
P  1.399414  4.402888  1.381054
P  3.952593  5.160067  5.160067
P  1.463700  1.456469 10.316158
P  4.411808  1.459744  7.346109
P  1.399423  4.402963  7.424791
P  4.413566  4.402923 10.303768
P  1.399423  7.424791  4.402963
P  4.411808  7.346109  1.459744
P  1.463700 10.316158  1.456469
P  4.413566 10.303768  4.402923
P  1.463701  7.349376 10.291376
P  4.464140  7.446516  7.446516
P  1.463701 10.291376  7.349376
P  4.359039 10.303771 10.303771
P  7.422897  1.418196  4.431280
P 10.315976  1.445620  1.445620
P  7.422897  4.431280  1.418196
P 10.354500  4.402922  4.402922
P  7.363933  1.442984 10.291884
P 10.327796  1.442200  7.363648
P  7.422901  4.374571  7.387661
P 10.276660  4.402919 10.303764
P  7.422901  7.387661  4.374571
P 10.327796  7.363648  1.442200
P  7.363933 10.291884  1.442984
P 10.276660 10.303764  4.402919
P  7.363935  7.362861 10.315652
P 10.315977  7.360222  7.360222
P  7.363935 10.315652  7.362861
P 10.312630 10.303759 10.303759
In -0.007018 -0.027890 -0.027890
In  2.964093 -0.004826  2.911413
In  0.005716  2.914262  2.914262
In  2.964093  2.911413 -0.004826
In -0.047556 -0.072884  5.886499
In  2.917546 -0.009306  8.815162
In -0.047557  2.919371  8.878741
In  2.785469  2.838747  5.967094
In -0.047556  5.886499 -0.072884
In  2.785469  5.967094  2.838747
In -0.047557  8.878741  2.919371
In  2.917546  8.815162 -0.009306
In  0.005722  5.891595  5.891595
In  2.964094  5.894444  8.810674
In -0.007027  8.833752  8.833752
In  2.964094  8.810674  5.894444
In  5.901534 -0.091753 -0.091753
In  8.848107 -0.036044  2.906687
In  6.090989  2.771099  2.771099
In  8.848107  2.906687 -0.036044
In  5.881269 -0.027983  5.877914
In  8.844860 -0.018061  8.823918
In  5.881263  2.927943  8.833836
In  8.892079  2.931399  5.874451
In  5.881269  5.877914 -0.027983
In  8.892079  5.874451  2.931399
In  5.881263  8.833836  2.927943
In  8.844860  8.823918 -0.018061
In  6.091007  6.034777  6.034777
In  8.848106  5.899169  8.841897
In  5.901532  8.897628  8.897628
In  8.848106  8.841897  5.899169
P  3.952592  3.645843  3.645843
%ENDBLOCK POSITIONS_ABS

FIX_ALL_CELL: TRUE
KPOINT_MP_GRID: 4 4 4
KPOINT_MP_OFFSET: 0.125 0.125 0.125
