#######################################################
#CASTEP cell file: /home/eng/phrbqc/GitHub/InPDislocs/Devel/Data_Devel/EOS/CASTEP_Files/ZB_EOS_0.971/ZB_EOS_0.971.cell
#Created using the Atomic Simulation Environment (ASE)#
#######################################################

%BLOCK LATTICE_CART
 5.729881  0.000000 -0.000000
 0.000000  5.729881 -0.000000
-0.000000 -0.000000  5.729881
%ENDBLOCK LATTICE_CART

%BLOCK POSITIONS_ABS
P  1.432470  1.432470  4.297411
P  4.297411  1.432470  1.432470
P  1.432470  4.297411  1.432470
P  4.297411  4.297411  4.297411
In  0.000000  0.000000  0.000000
In  2.864941  0.000000  2.864941
In  0.000000  2.864941  2.864941
In  2.864941  2.864941  0.000000
%ENDBLOCK POSITIONS_ABS

KPOINT_MP_GRID: 7 7 7
KPOINT_MP_OFFSET: 0.071429 0.071429 0.071429
