#######################################################
#CASTEP cell file: /home/eng/phrbqc/GitHub/InPDislocs/Devel/Data_Devel/EOS/CASTEP_Files/ZB_EOS_1.0562/ZB_EOS_1.0562.cell
#Created using the Atomic Simulation Environment (ASE)#
#######################################################

%BLOCK LATTICE_CART
 6.233120  0.000000 -0.000000
 0.000000  6.233120 -0.000000
-0.000000 -0.000000  6.233120
%ENDBLOCK LATTICE_CART

%BLOCK POSITIONS_ABS
P  1.558280  1.558280  4.674840
P  4.674840  1.558280  1.558280
P  1.558280  4.674840  1.558280
P  4.674840  4.674840  4.674840
In  0.000000  0.000000  0.000000
In  3.116560  0.000000  3.116560
In  0.000000  3.116560  3.116560
In  3.116560  3.116560  0.000000
%ENDBLOCK POSITIONS_ABS

KPOINT_MP_GRID: 7 7 7
KPOINT_MP_OFFSET: 0.071429 0.071429 0.071429
