#######################################################
#CASTEP cell file: /home/eng/phrbqc/GitHub/InPDislocs/Devel/Data_Devel/EOS/CASTEP_Files/WZ_EOS_1.1736/WZ_EOS_1.1736.cell
#Created using the Atomic Simulation Environment (ASE)#
#######################################################

%BLOCK LATTICE_CART
 4.887562 -0.000051  0.000000
 2.443737  4.232778 -0.000000
 0.000000 -0.000000  8.026433
%ENDBLOCK LATTICE_CART

%BLOCK POSITIONS_ABS
P  2.443740  1.410899 -0.000104
P  4.887555  2.821836  4.013112
In  2.443754  1.410907  3.005442
In  4.887540  2.821827  7.018658
%ENDBLOCK POSITIONS_ABS

KPOINT_MP_GRID: 9 9 5
KPOINT_MP_OFFSET: 0.055556 0.055556 0.1
