# written by ASE

%BLOCK LATTICE_CART
 4.172527  0.000000  0.000000
 0.000000  4.172527  0.000000
 0.000000  2.607829 35.405064
%ENDBLOCK LATTICE_CART

%BLOCK POSITIONS_ABS
In  2.086263  2.086263 14.753080
In  0.000000  0.000000 29.483746
In  2.086263  2.086263 26.538570
In  0.000000  0.000000 23.592120
In  2.086263  2.086263 20.645829
In  0.000000  0.000000 17.699477
In  0.000000  0.000000 11.806772
In  2.086263  2.086263 32.452021
In  0.000000  0.000000  5.910392
In  2.086263  2.086263  2.958779
In  0.000000  0.000000 -0.117479
In  2.086263  2.086263  8.860013
P  2.086263  0.000000 16.226305
P  0.000000  2.086263  7.387595
P  0.000000  2.086263 13.280034
P  0.000000  2.086263 30.958625
P  2.086263  0.000000 22.118999
P  0.000000  2.086263 19.172657
P  2.086263  0.000000 10.333861
P  2.086263  0.000000 28.011556
P  0.000000  2.086263 25.066133
P  0.000000  2.086263  1.475973
P  2.086263  0.000000 34.102504
P  2.086263  0.000000  4.440673
%ENDBLOCK POSITIONS_ABS

FIX_ALL_CELL: TRUE
KPOINT_MP_GRID: 8 10 2
KPOINT_MP_OFFSET: 0.0625 0.05 0.25

%BLOCK IONIC_CONSTRAINTS
1 In 1 1 0 0
2 In 1 0 1 0
3 In 2 1 0 0
4 In 2 0 1 0
5 In 3 1 0 0
6 In 3 0 1 0
7 In 4 1 0 0
8 In 4 0 1 0
9 In 5 1 0 0
10 In 5 0 1 0
11 In 6 1 0 0
12 In 6 0 1 0
13 In 7 1 0 0
14 In 7 0 1 0
15 In 8 1 0 0
16 In 8 0 1 0
17 In 9 1 0 0
18 In 9 0 1 0
19 In 10 1 0 0
20 In 10 0 1 0
21 In 11 1 0 0
22 In 11 0 1 0
23 In 12 1 0 0
24 In 12 0 1 0
25 P 1 1 0 0
26 P 1 0 1 0
27 P 2 1 0 0
28 P 2 0 1 0
29 P 3 1 0 0
30 P 3 0 1 0
31 P 4 1 0 0
32 P 4 0 1 0
33 P 5 1 0 0
34 P 5 0 1 0
35 P 6 1 0 0
36 P 6 0 1 0
37 P 7 1 0 0
38 P 7 0 1 0
39 P 8 1 0 0
40 P 8 0 1 0
41 P 9 1 0 0
42 P 9 0 1 0
43 P 10 1 0 0
44 P 10 0 1 0
45 P 11 1 0 0
46 P 11 0 1 0
47 P 12 1 0 0
48 P 12 0 1 0
%ENDBLOCK IONIC_CONSTRAINTS
