# written by ASE

%BLOCK LATTICE_CART
14.454087 20.441167  0.000000
14.454087 -20.441167 -0.000000
 0.000000  0.000000  4.172536
%ENDBLOCK LATTICE_CART

%BLOCK POSITIONS_ABS
In  9.956005 -2.869638  3.600375
P 10.192436 -0.339981  3.205693
In  6.281889 -2.757724  1.869006
P  6.113518 -0.236235  2.058834
In  8.067332  0.630955  2.952798
P  8.211846  3.173497  2.711052
In 11.503792  0.478600  0.994582
P 11.749073  3.049643  0.737642
In  7.033646  4.033441  0.517611
P  7.072669  6.541521  0.422256
In 10.611056  3.936842  2.737537
P 10.690361  6.478709  2.571257
In  9.504919  7.344879  0.426456
P  9.554731  9.868117  0.307575
In  5.876885  7.386301  2.449167
P 20.548746 -10.719242  1.827505
In  8.359429 10.719242  2.345031
P 23.031290 -7.386301  1.723368
In 11.986918 10.689108  0.292442
P 12.025143 13.230203  0.230377
In 21.835506 -6.541521  3.750279
P 21.874529 -4.033441  3.654924
In 10.826993 14.077968  2.282837
P 25.455884 -4.000169  1.771338
In 17.159102 -3.049643  3.434893
P 17.404383 -0.478600  3.177954
In 13.589485 -2.970118  1.358602
P 13.811756 -0.415785  1.091971
In 15.096419  0.415785  3.080564
P 15.318690  2.970118  2.813934
In 18.715739  0.339981  0.966843
P 18.952170  2.869638  0.572161
In 14.176596  3.848501  0.666263
P 14.289403  6.406256  0.478028
In 17.783258  3.761217  2.649125
P 17.891403  6.324806  2.473200
In 16.717488  7.209910  0.382600
P 16.784895  9.778698  0.289544
In 13.115449  7.280173  2.526001
P 13.176146  9.828426  2.410048
In 15.601453 10.650780  2.370263
P 15.645727 13.212447  2.332990
In 19.203481 10.602404  0.223732
P 19.258929 13.190616  0.190702
In 14.446948 14.070800  0.247096
P 14.437835 16.621489  0.281876
In 18.071125 14.056484  2.300175
P  3.827587 -3.646444  1.975001
In 24.256412 -3.160773  3.819119
P 24.146182 -0.585819  4.053992
In 20.696329 -3.173497  1.461483
P 20.840843 -0.630955  1.219738
In 22.794657  0.236235  2.113702
P 22.626286  2.757724  2.303529
In 26.463746  0.266663  4.124725
P 26.319233  2.803355  0.061087
In 21.428246  3.629633  0.301368
P 21.495206  6.235378  0.241231
In 25.080588  3.646444  2.197535
P 10.837050 -14.056484  1.872360
In  9.649246 -13.190616  3.981834
P  9.704694 -10.602404  3.948804
In 20.318256  7.125007  2.352553
P 20.380807  9.720111  2.296641
In  8.527368 -9.720111  1.875895
P  8.589919 -7.125007  1.819983
In 12.123280 -9.778698  3.882991
P 12.190687 -7.209910  3.789935
In  7.412969 -6.235378  3.931305
P  7.479929 -3.629633  3.871168
In 11.016772 -6.324806  1.699336
P 11.124917 -3.761217  1.523411
In  2.588941 -2.803355  4.111448
P  2.444429 -0.266663  0.047811
In 13.210089 17.475198  2.388052
P 27.723312 -0.591824  1.984657
In  1.184863  0.591824  2.187879
P 15.698086 -17.475198  1.784483
In  4.761993  0.585819  0.118543
P  4.651763  3.160773  0.353416
In 14.470340 -16.621489  3.890660
P 14.461227 -14.070800  3.925439
In  3.452291  4.000169  2.401197
P 18.081182 -14.077968  1.889699
In 16.883032 -13.230203  3.942159
P 16.921257 -10.689108  3.880093
In 13.262448 -13.212447  1.839545
P 13.306722 -10.650780  1.802272
In 15.732029 -9.828426  1.762487
P 15.792726 -7.280173  1.646534
In 19.353444 -9.868117  3.864960
P 19.403256 -7.344879  3.746080
In 14.618772 -6.406256  3.694508
P 14.731579 -3.848501  3.506273
In 18.217814 -6.478709  1.601278
P 18.297119 -3.936842  1.434998
%ENDBLOCK POSITIONS_ABS

FIX_ALL_CELL: TRUE
KPOINT_MP_GRID: 2 2 8
KPOINT_MP_OFFSET: 0.25 0.25 0.0625
