#######################################################
#CASTEP cell file: /home/eng/phrbqc/GitHub/InPDislocs/Devel/Data_Devel/EOS/CASTEP_Files/ZB_EOS_0.7631/ZB_EOS_0.7631.cell
#Created using the Atomic Simulation Environment (ASE)#
#######################################################

%BLOCK LATTICE_CART
 4.503238  0.000000 -0.000000
 0.000000  4.503238 -0.000000
-0.000000 -0.000000  4.503238
%ENDBLOCK LATTICE_CART

%BLOCK POSITIONS_ABS
P  1.125810  1.125810  3.377429
P  3.377429  1.125810  1.125810
P  1.125810  3.377429  1.125810
P  3.377429  3.377429  3.377429
In  0.000000  0.000000  0.000000
In  2.251619  0.000000  2.251619
In  0.000000  2.251619  2.251619
In  2.251619  2.251619  0.000000
%ENDBLOCK POSITIONS_ABS

KPOINT_MP_GRID: 9 9 9
KPOINT_MP_OFFSET: 0.055556 0.055556 0.055556
