# written by ASE

%BLOCK LATTICE_CART
14.454049 20.441112  0.000000
14.454049 -20.441112  0.000000
-0.000000  0.000000  4.172525
%ENDBLOCK LATTICE_CART

%BLOCK POSITIONS_ABS
In  9.167535 -3.153434  0.161280
P  8.423358 -0.697723  0.580619
In  5.768049 -3.147111  1.841844
P  6.315954 -0.659200  1.444876
In  9.544992  0.358078  2.572296
P  8.954338  2.852623  2.225581
In 13.235034  0.412641  0.245840
P 12.605251  2.930449  0.134433
In  7.647870  3.653189  0.101308
P  7.439512  6.254153  0.068283
In 11.348951  3.785314  2.209817
P 11.071707  6.346188  2.152898
In  9.816382  7.189318  0.064127
P  9.641274  9.776675  0.046185
In  6.227518  7.168390  2.144548
P 20.510939 -10.684955  2.134146
In  8.433910 10.678164  2.132872
P 22.711895 -7.176879  2.131257
In 12.024480 10.672623  0.021080
P 11.874328 13.245810  0.005892
In 21.467973 -6.316922  0.048740
P 21.291764 -3.723484  0.055375
In 10.663495 14.133063  2.095189
P 25.023747 -3.729390  2.086379
In 16.321861 -2.964918  0.108099
P 15.739270 -0.440808  0.146332
In 12.720948 -2.971106  2.209922
P 12.063660 -0.473797  2.350401
In 16.857777  0.460247  2.225047
P 16.194605  2.964115  2.182857
In 20.417568  0.600579  0.109135
P 19.719239  3.064421  0.045475
In 14.976301  3.840455  0.095888
P 14.687088  6.385642  0.042173
In 18.523565  3.923785  2.131845
P 18.293847  6.449467  2.092635
In 17.054499  7.269178  0.006471
P 16.841734  9.802955 -0.016688
In 13.450311  7.241385  2.127258
P 13.245677  9.801421  2.106317
In 15.631763 10.665217  2.069975
P 15.487426 13.214268  2.040836
In 19.221007 10.654226 -0.046296
P 19.056249 13.173874 -0.079621
In 14.284304 14.077141 -0.044918
P 14.233479 16.639428 -0.083927
In 17.883440 14.051257  2.005592
P  3.352453 -3.848497  1.967600
In 23.739388 -2.977036  0.006623
P 23.811423 -0.368542 -0.001850
In 19.981286 -2.932186  2.149135
P 19.387069 -0.413043  2.194807
In 23.236749  0.878603  2.089278
P 23.248850  3.342883  2.075321
In 26.445549  0.443742 -0.156398
P 12.302429 -17.426090 -0.092711
In 22.003232  4.103755 -0.007539
P 21.879447  6.599963 -0.032252
In 25.703181  4.012078  1.998813
P 11.069053 -13.921280  2.008669
In  9.853874 -13.119316 -0.076285
P  9.672530 -10.606984 -0.072749
In 20.646723  7.367153  2.055962
P 20.460698  9.875040  2.039377
In  8.434837 -9.834921  2.010609
P  8.250940 -7.324251  1.977160
In 12.073049 -9.789027 -0.017725
P 11.851470 -7.263163  0.032562
In  7.023546 -6.558949 -0.121573
P  6.865268 -4.062319 -0.222159
In 10.621938 -6.460827  2.121773
P 10.396591 -3.939384  2.236223
In 16.650862 17.482360 -0.117502
P  2.518182 -0.427480 -0.243221
In 13.033589 17.504222  2.003682
P 27.673882 -0.386971  1.922382
In  1.266295  0.408217  1.862166
P 15.936605 -17.480943  1.969445
In  5.015012  0.338383 -0.500461
P  5.176692  2.885624 -0.149611
In 14.745741 -16.612716 -0.107429
P 14.645196 -14.051619 -0.064224
In  3.935440  3.768504  1.945872
P 18.264975 -14.102811  2.036750
In 17.057155 -13.223172 -0.047275
P 16.898251 -10.655560  0.004174
In 13.481521 -13.140861  2.025384
P 13.299699 -10.609822  2.066930
In 15.694638 -9.772199  2.092145
P 15.455670 -7.224988  2.136194
In 19.295608 -9.799109  0.045816
P 19.086477 -7.222493  0.062116
In 14.221284 -6.381312  0.053431
P 13.950236 -3.837127  0.114947
In 17.843377 -6.369052  2.151181
P 17.593069 -3.812043  2.185350
%ENDBLOCK POSITIONS_ABS

KPOINT_MP_GRID: 2 2 8
KPOINT_MP_OFFSET: 0.25 0.25 0.0625
