# written by ASE

%BLOCK LATTICE_CART
14.454049 20.441112  0.000000
14.454049 -20.441112  0.000000
-0.000000  0.000000  4.172525
%ENDBLOCK LATTICE_CART

%BLOCK POSITIONS_ABS
In  9.162832 -3.148611  0.169634
P  8.416956 -0.693446  0.603341
In  5.762388 -3.155482  1.835526
P  6.308249 -0.665841  1.442722
In  9.555313  0.360188  2.587897
P  8.959125  2.853165  2.236005
In 13.247778  0.412540  0.236914
P 12.611765  2.928733  0.132489
In  7.651268  3.651524  0.110875
P  7.440495  6.252433  0.070269
In 11.354089  3.782686  2.208190
P 11.073600  6.343254  2.150270
In  9.817619  7.186402  0.061657
P  9.641752  9.773707  0.044012
In  6.228387  7.166736  2.146261
P 20.510987 -10.686825  2.134401
In  8.434554 10.674970  2.130756
P 22.712408 -7.180441  2.127594
In 12.023684 10.672421  0.018866
P 11.871376 13.246401  0.001930
In 21.468515 -6.322842  0.044845
P 21.284939 -3.731794  0.049969
In 10.661101 14.136850  2.090592
P 25.014560 -3.724600  2.077152
In 16.319070 -2.969195  0.106171
P 15.749422 -0.443579  0.137152
In 12.720042 -2.969567  2.211473
P 12.070908 -0.470833  2.342101
In 16.868658  0.456014  2.215431
P 16.198553  2.958681  2.178405
In 20.430403  0.590257  0.088068
P 19.728251  3.052285  0.038048
In 14.981347  3.838994  0.091794
P 14.689600  6.383773  0.039580
In 18.529241  3.914106  2.125124
P 18.296834  6.441663  2.089592
In 17.057718  7.264402  0.003660
P 16.842835  9.798381 -0.017201
In 13.451475  7.240127  2.124885
P 13.245280  9.800178  2.104197
In 15.632258 10.660341  2.069544
P 15.486142 13.209361  2.043028
In 19.218921 10.657115 -0.045239
P 19.053944 13.175912 -0.078028
In 14.282835 14.072381 -0.042501
P 14.229535 16.634673 -0.080189
In 17.879887 14.051374  2.007379
P  3.346908 -3.849363  1.968175
In 23.728429 -2.968810 -0.003594
P 23.796150 -0.350587 -0.033937
In 19.975526 -2.941277  2.143543
P 19.401659 -0.418742  2.174835
In 23.213805  0.902296  2.054515
P 23.249129  3.365197  2.071597
In 26.459077  0.445705 -0.125166
P 12.302170 -17.426012 -0.081964
In 22.000904  4.115515 -0.010599
P 21.876778  6.610379 -0.033620
In 25.706886  4.013545  2.008857
P 11.070351 -13.919749  2.015559
In  9.854287 -13.117831 -0.069799
P  9.671889 -10.605408 -0.069891
In 20.643734  7.373902  2.054482
P 20.459138  9.880760  2.040386
In  8.434773 -9.832874  2.013108
P  8.250509 -7.322395  1.978616
In 12.071286 -9.785387 -0.015236
P 11.849313 -7.259561  0.035031
In  7.022001 -6.559125 -0.120165
P  6.864547 -4.062565 -0.227138
In 10.620485 -6.455255  2.124452
P 10.393033 -3.933586  2.244255
In 16.644530 17.481866 -0.116764
P  2.521507 -0.428312 -0.229629
In 13.028472 17.498746  2.007479
P 27.680043 -0.391179  1.953047
In  1.270760  0.408721  1.877342
P 15.935878 -17.479267  1.975398
In  5.014666  0.341005 -0.501513
P  5.178910  2.886563 -0.148808
In 14.745526 -16.610536 -0.101603
P 14.644626 -14.049092 -0.060257
In  3.935573  3.769224  1.947098
P 18.265049 -14.102352  2.038235
In 17.057186 -13.222946 -0.045854
P 16.897214 -10.655635  0.005057
In 13.481803 -13.136289  2.029396
P 13.298365 -10.605798  2.069379
In 15.694161 -9.771539  2.093059
P 15.454209 -7.224940  2.136635
In 19.295245 -9.801656  0.046120
P 19.085881 -7.225597  0.061363
In 14.220054 -6.381060  0.053994
P 13.947066 -3.837188  0.116287
In 17.842940 -6.373142  2.150630
P 17.587572 -3.816893  2.183556
%ENDBLOCK POSITIONS_ABS

KPOINT_MP_GRID: 2 2 8
KPOINT_MP_OFFSET: 0.25 0.25 0.0625
