# written by ASE

%BLOCK LATTICE_CART
11.802550  0.000000  0.000000
 0.000000 11.802550  0.000000
 0.000000  0.000000 11.802550
%ENDBLOCK LATTICE_CART

%BLOCK POSITIONS_ABS
P  1.503847  1.446790  4.464659
P  4.547924  1.568569  1.578840
P  1.503847  4.454388  1.457061
P  4.427217  4.461820  4.472091
P  1.382069  1.568569 10.215535
P  4.450148  1.460560  7.359231
P  1.485147  4.432413  7.358784
P  4.561503  4.514371 10.201955
P  1.485147  7.348513  4.442684
P  4.450148  7.348961  1.470830
P  1.382069 10.205264  1.578840
P  4.561503 10.191685  4.524642
P  1.490078  7.348961 10.313310
P  4.461756  7.395290  7.405561
P  1.490078 10.303039  7.359231
P  4.333048 10.420139 10.430410
P  7.404675  1.465490  4.442684
P 10.298799  1.446790  1.457061
P  7.404675  4.432413  1.475761
P 10.401309  4.351879  4.362150
P  7.404227  1.460560 10.313310
P 10.320774  1.465490  7.358784
P  7.421483  4.410700  7.341976
P 10.291367  4.461820 10.336241
P  7.421483  7.331705  4.420971
P 10.320774  7.348513  1.475761
P  7.404227 10.303039  1.470830
P 10.291367 10.325971  4.472091
P  7.357897  7.395290 10.301702
P 10.342487  7.331705  7.341976
P  7.357897 10.291431  7.405561
P 10.238816 10.191685 10.201955
In -0.271800 -0.112340 -0.102069
In  3.062977 -0.112340  3.232708
In  0.083299  2.867338  2.877609
In  3.062977  3.222437 -0.102069
In  0.001107 -0.015762  5.915339
In  2.908863  0.041774  8.807069
In -0.097922  3.048560  8.775315
In  2.966400  2.949530  5.915339
In  0.001107  5.905068 -0.005491
In  2.966400  5.905068  2.959801
In -0.097922  8.765044  3.058831
In  2.908863  8.796798  0.052045
In  0.000252  5.852537  5.862808
In  2.960656  5.918660  8.799874
In  0.034392  8.789662  8.799932
In  2.960656  8.789603  5.928931
In  5.956390  0.041774  0.052045
In  8.848119 -0.015762  2.959801
In  5.988143  3.048560  3.058831
In  8.848119  2.949530 -0.005491
In  5.963584 -0.010019  5.928931
In  8.834527 -0.010019  8.799874
In  5.963526  2.916245  8.799932
In  8.900650  2.950385  5.862808
In  5.963584  5.918660  0.000252
In  8.900650  5.852537  2.960656
In  5.963526  8.789662  2.926516
In  8.834527  8.789603  0.000252
In  5.927607  5.917896  5.928167
In  8.835292  5.917896  8.835851
In  5.832855  8.920332  8.930603
In  8.835292  8.825580  5.928167
In  2.560366  0.390272  0.400543
%ENDBLOCK POSITIONS_ABS

KPOINT_MP_GRID: 4 4 4
KPOINT_MP_OFFSET: 0.125 0.125 0.125
