# written by ASE

%BLOCK LATTICE_CART
11.802550  0.000000  0.000000
 0.000000 11.802550  0.000000
 0.000000  0.000000 11.802550
%ENDBLOCK LATTICE_CART

%BLOCK POSITIONS_ABS
P  1.503354  1.447283  4.468358
P  4.555268  1.570225  1.580496
P  1.503354  4.458087  1.457554
P  4.427229  4.463515  4.473786
P  1.380413  1.570225 10.208190
P  4.452344  1.461465  7.358047
P  1.484622  4.432408  7.358376
P  4.558616  4.510922 10.204842
P  1.484622  7.348105  4.442679
P  4.452344  7.347776  1.471735
P  1.380413 10.197919  1.580496
P  4.558616 10.194571  4.521193
P  1.489173  7.347776 10.311114
P  4.460691  7.395725  7.405996
P  1.489173 10.300843  7.358047
P  4.330294 10.422893 10.433164
P  7.405082  1.466015  4.442679
P 10.295100  1.447283  1.457554
P  7.405082  4.432408  1.476286
P 10.403265  4.349923  4.360194
P  7.405411  1.461465 10.311114
P 10.320780  1.466015  7.358376
P  7.422470  4.410672  7.340989
P 10.289672  4.463515 10.336229
P  7.422470  7.330718  4.420943
P 10.320780  7.348105  1.476286
P  7.405411 10.300843  1.471735
P 10.289672 10.325958  4.473786
P  7.357462  7.395725 10.302768
P 10.342516  7.330718  7.340989
P  7.357462 10.292497  7.405996
P 10.242265 10.194571 10.204842
In -0.266774 -0.108757 -0.098486
In  3.059395 -0.108757  3.227682
In  0.084653  2.865984  2.876255
In  3.059394  3.217411 -0.098486
In  0.000719 -0.016870  5.916382
In  2.909707  0.040931  8.802601
In -0.100386  3.051023  8.774468
In  2.967507  2.949918  5.916382
In  0.000719  5.906111 -0.006599
In  2.967507  5.906111  2.960189
In -0.100386  8.764197  3.061294
In  2.909707  8.792330  0.051201
In  0.000343  5.851152  5.861423
In  2.960608  5.916837  8.800329
In  0.032584  8.789539  8.799810
In  2.960608  8.790058  5.927108
In  5.960858  0.040931  0.051201
In  8.847077 -0.016870  2.960189
In  5.988991  3.051023  3.061294
In  8.847077  2.949918 -0.006599
In  5.963129 -0.009970  5.927108
In  8.836351 -0.009970  8.800329
In  5.963648  2.918054  8.799810
In  8.902035  2.950294  5.861423
In  5.963129  5.916837  0.000301
In  8.902035  5.851152  2.960565
In  5.963648  8.789539  2.928324
In  8.836351  8.790058  0.000301
In  5.928036  5.919024  5.929295
In  8.834163  5.919024  8.835422
In  5.832545  8.920642  8.930913
In  8.834163  8.825152  5.929295
In  2.560278  0.390359  0.400630
%ENDBLOCK POSITIONS_ABS

KPOINT_MP_GRID: 4 4 4
KPOINT_MP_OFFSET: 0.125 0.125 0.125
