# written by ASE

%BLOCK LATTICE_CART
11.801682 -0.000008 -0.000008
-0.000008 11.801682 -0.000008
-0.000008 -0.000008 11.801682
%ENDBLOCK LATTICE_CART

%BLOCK POSITIONS_ABS
P  1.580118  1.580118  4.478808
P  4.478807  1.580117  1.580117
P  1.580118  4.478808  1.580118
P  4.881626  4.881627  4.881627
In -0.000561 -0.000561 -0.000561
In  2.967537  0.041825  2.967537
In  0.041825  2.967538  2.967537
In  2.967537  2.967538  0.041825
P  1.488139  1.488138 10.347783
P  4.434477  1.479936  7.364944
P  1.479935  4.434476  7.364944
P  4.412831  4.412831 10.300539
In  0.042383  0.042383  5.888171
In  2.960089  0.010091  8.853126
In  0.010091  2.960088  8.853126
In  3.171209  3.171209  5.879227
P  1.479935  7.364944  4.434476
P  4.434477  7.364944  1.479936
P  1.488139 10.347783  1.488138
P  4.412831 10.300539  4.412831
In  0.042383  5.888171  0.042383
In  3.171209  5.879227  3.171209
In  0.010091  8.853126  2.960088
In  2.960089  8.853126  0.010091
P  1.483857  7.378795 10.325910
P  4.513347  7.216720  7.216720
P  1.483857 10.325911  7.378795
P  4.447543 10.325044 10.325044
In -0.030292  5.892899  5.892899
In  2.981033  5.935868  8.800639
In -0.010808  8.838447  8.838446
In  2.981033  8.800639  5.935868
P  7.364944  1.479936  4.434477
P 10.347783  1.488139  1.488139
P  7.364944  4.434477  1.479936
P 10.300539  4.412831  4.412831
In  5.888171  0.042382  0.042382
In  8.853126  0.010092  2.960089
In  5.879227  3.171209  3.171209
In  8.853126  2.960089  0.010092
P  7.378795  1.483857 10.325911
P 10.325911  1.483857  7.378795
P  7.216722  4.513347  7.216722
P 10.325045  4.447542 10.325045
In  5.892899 -0.030292  5.892899
In  8.838447 -0.010809  8.838447
In  5.935869  2.981033  8.800639
In  8.800639  2.981033  5.935869
P  7.216722  7.216722  4.513347
P 10.325911  7.378795  1.483857
P  7.378795 10.325911  1.483857
P 10.325045 10.325045  4.447542
In  5.892899  5.892899 -0.030292
In  8.800639  5.935869  2.981033
In  5.935869  8.800640  2.981033
In  8.838447  8.838447 -0.010809
P  7.368102  7.368102 10.293913
P 10.293913  7.368102  7.368102
P  7.368102 10.293913  7.368101
P 10.324067 10.324066 10.324066
In  8.764802  5.844615  8.764802
In  5.844615  8.764801  8.764801
In  8.764802  8.764802  5.844615
%ENDBLOCK POSITIONS_ABS

KPOINT_MP_GRID: 4 4 4
KPOINT_MP_OFFSET: 0.125 0.125 0.125
