# written by ASE

%BLOCK LATTICE_CART
11.801682 -0.000008 -0.000008
-0.000008 11.801682 -0.000008
-0.000008 -0.000008 11.801682
%ENDBLOCK LATTICE_CART

%BLOCK POSITIONS_ABS
P  1.579711  1.579711  4.479581
P  4.479577  1.579703  1.579703
P  1.579711  4.479582  1.579712
P  4.883625  4.883646  4.883646
In -0.000487 -0.000486 -0.000486
In  2.968188  0.042120  2.968191
In  0.042122  2.968191  2.968191
In  2.968188  2.968191  0.042120
P  1.488663  1.488663 10.348426
P  4.434967  1.479525  7.365356
P  1.479517  4.434966  7.365357
P  4.412771  4.412771 10.299562
In  0.041840  0.041837  5.888389
In  2.960385  0.010224  8.853692
In  0.010222  2.960382  8.853693
In  3.170868  3.170873  5.881430
P  1.479517  7.365357  4.434966
P  4.434967  7.365356  1.479525
P  1.488663 10.348426  1.488662
P  4.412771 10.299562  4.412771
In  0.041840  5.888389  0.041837
In  3.170868  5.881430  3.170873
In  0.010222  8.853693  2.960382
In  2.960385  8.853693  0.010224
P  1.482918  7.379601 10.326688
P  4.507492  7.219676  7.219676
P  1.482918 10.326688  7.379601
P  4.447958 10.324938 10.324938
In -0.031001  5.892797  5.892797
In  2.978963  5.935717  8.802347
In -0.011793  8.837601  8.837600
In  2.978963  8.802347  5.935717
P  7.365355  1.479524  4.434969
P 10.348427  1.488664  1.488664
P  7.365355  4.434969  1.479524
P 10.299561  4.412772  4.412771
In  5.888388  0.041831  0.041831
In  8.853693  0.010225  2.960385
In  5.881423  3.170865  3.170865
In  8.853693  2.960385  0.010225
P  7.379602  1.482915 10.326690
P 10.326689  1.482914  7.379601
P  7.219694  4.507493  7.219696
P 10.324947  4.447957 10.324946
In  5.892795 -0.030999  5.892797
In  8.837600 -0.011795  8.837600
In  5.935722  2.978963  8.802352
In  8.802350  2.978966  5.935722
P  7.219693  7.219696  4.507493
P 10.326689  7.379601  1.482914
P  7.379602 10.326691  1.482915
P 10.324946 10.324947  4.447957
In  5.892795  5.892797 -0.030999
In  8.802350  5.935722  2.978965
In  5.935722  8.802352  2.978963
In  8.837600  8.837601 -0.011795
P  7.367437  7.367436 10.292347
P 10.292347  7.367439  7.367438
P  7.367437 10.292347  7.367436
P 10.323798 10.323798 10.323798
In  8.764539  5.843491  8.764538
In  5.843492  8.764526  8.764526
In  8.764538  8.764538  5.843491
%ENDBLOCK POSITIONS_ABS

KPOINT_MP_GRID: 4 4 4
KPOINT_MP_OFFSET: 0.125 0.125 0.125
