#######################################################
#CASTEP cell file: /home/eng/phrbqc/GitHub/InPDislocs/Devel/Data_Devel/EOS/CASTEP_Files/ZB_EOS_0.8324/ZB_EOS_0.8324.cell
#Created using the Atomic Simulation Environment (ASE)#
#######################################################

%BLOCK LATTICE_CART
 4.912119  0.000000 -0.000000
 0.000000  4.912119 -0.000000
-0.000000 -0.000000  4.912119
%ENDBLOCK LATTICE_CART

%BLOCK POSITIONS_ABS
P  1.228030  1.228030  3.684089
P  3.684089  1.228030  1.228030
P  1.228030  3.684089  1.228030
P  3.684089  3.684089  3.684089
In  0.000000  0.000000  0.000000
In  2.456060  0.000000  2.456060
In  0.000000  2.456060  2.456060
In  2.456060  2.456060  0.000000
%ENDBLOCK POSITIONS_ABS

KPOINT_MP_GRID: 7 7 7
KPOINT_MP_OFFSET: 0.071429 0.071429 0.071429
