#######################################################
#CASTEP cell file: /home/eng/phrbqc/GitHub/InPDislocs/Devel/Data_Devel/EOS/CASTEP_Files/ZB_EOS_1.1948/ZB_EOS_1.1948.cell
#Created using the Atomic Simulation Environment (ASE)#
#######################################################

%BLOCK LATTICE_CART
 7.050882  0.000000 -0.000000
 0.000000  7.050882 -0.000000
-0.000000 -0.000000  7.050882
%ENDBLOCK LATTICE_CART

%BLOCK POSITIONS_ABS
P  1.762720  1.762720  5.288161
P  5.288161  1.762720  1.762720
P  1.762720  5.288161  1.762720
P  5.288161  5.288161  5.288161
In  0.000000  0.000000  0.000000
In  3.525441  0.000000  3.525441
In  0.000000  3.525441  3.525441
In  3.525441  3.525441  0.000000
%ENDBLOCK POSITIONS_ABS

KPOINT_MP_GRID: 5 5 5
KPOINT_MP_OFFSET: 0.1 0.1 0.1
