# written by ASE

%BLOCK LATTICE_CART
11.801682 -0.000008 -0.000008
-0.000008 11.801682 -0.000008
-0.000008 -0.000008 11.801682
%ENDBLOCK LATTICE_CART

%BLOCK POSITIONS_ABS
P  1.504564  1.504564  4.629077
P  4.407201  1.498170  1.597429
P  1.498170  4.407201  1.597429
P  5.217242  5.217242  4.056390
In  0.012716  0.012716 -0.037412
In  2.858089  0.028337  3.073304
In  0.028337  2.858089  3.073304
In  2.959711  2.959711  0.064425
P  1.505876  1.505876 10.310239
P  4.428890  1.752633  7.255376
P  1.752633  4.428890  7.255376
P  4.400106  4.400106 10.332011
In -0.072627 -0.072627  5.853932
In  2.959615  0.147141  8.690843
In  0.147142  2.959614  8.690843
In  4.758823  4.758823  6.488793
P  1.472659  7.387422  4.407993
P  4.404796  7.477459  1.312158
P  1.477849 10.354470  1.469306
P  4.401075 10.316820  4.459135
In -0.061845  5.820347  0.105081
In  3.009817  6.052171  2.880068
In -0.007436  8.847705  2.919080
In  2.939636  8.968244 -0.118052
P  1.316253  7.428230 10.449855
P  4.326554  7.238992  7.428660
P  1.447167 10.322280  7.382341
P  4.420647 10.414638 10.196789
In  0.087936  5.828371  5.907307
In  2.779719  5.969497  9.017708
In -0.072931  8.844029  8.824373
In  2.950115  8.808604  5.945828
P  7.387422  1.472659  4.407993
P 10.354470  1.477849  1.469306
P  7.477459  4.404796  1.312158
P 10.316820  4.401075  4.459135
In  5.820347 -0.061845  0.105082
In  8.847705 -0.007436  2.919081
In  6.052171  3.009817  2.880068
In  8.968244  2.939636 -0.118052
P  7.428230  1.316252 10.449855
P 10.322280  1.447167  7.382341
P  7.238992  4.326554  7.428661
P 10.414638  4.420646 10.196789
In  5.828371  0.087936  5.907307
In  8.844029 -0.072931  8.824373
In  5.969497  2.779719  9.017708
In  8.808604  2.950115  5.945828
P  6.909111  6.909111  4.405441
P 10.257213  7.339374  1.532746
P  7.339374 10.257213  1.532746
P 10.227455 10.227455  4.400311
In  5.891026  5.891026 -0.043427
In  8.777244  5.837730  2.989179
In  5.837730  8.777244  2.989179
In  8.813202  8.813202  0.013438
P  7.366269  7.366269 10.281762
P 10.300209  7.327466  7.306987
P  7.327467 10.300209  7.306987
P 10.300516 10.300515 10.347593
In  8.796193  5.863352  8.775172
In  5.863352  8.796193  8.775172
In  8.674886  8.674886  5.825910
%ENDBLOCK POSITIONS_ABS

KPOINT_MP_GRID: 4 4 4
KPOINT_MP_OFFSET: 0.125 0.125 0.125
