# written by ASE

%BLOCK LATTICE_CART
11.801682 -0.000008 -0.000008
-0.000008 11.801682 -0.000008
-0.000008 -0.000008 11.801682
%ENDBLOCK LATTICE_CART

%BLOCK POSITIONS_ABS
P  1.510176  1.510176  4.632085
P  4.408431  1.504393  1.602588
P  1.504393  4.408431  1.602588
P  5.235934  5.235934  4.070509
In  0.012256  0.012256 -0.035797
In  2.858127  0.029458  3.073856
In  0.029458  2.858127  3.073856
In  2.961870  2.961870  0.064411
P  1.506516  1.506515 10.313483
P  4.424467  1.757080  7.249032
P  1.757080  4.424467  7.249032
P  4.399819  4.399819 10.326870
In -0.070499 -0.070499  5.850843
In  2.960057  0.150697  8.691998
In  0.150697  2.960056  8.691998
In  4.761436  4.761436  6.496702
P  1.477980  7.387501  4.407842
P  4.403620  7.475194  1.304846
P  1.476068 10.352926  1.471071
P  4.399301 10.315804  4.460383
In -0.060437  5.820546  0.110977
In  3.018890  6.051643  2.882699
In -0.011037  8.846445  2.922642
In  2.934919  8.967741 -0.121230
P  1.314380  7.425231 10.446213
P  4.329864  7.240543  7.429695
P  1.445595 10.324513  7.385044
P  4.419647 10.417579 10.200251
In  0.091891  5.827345  5.903003
In  2.779037  5.967554  9.011067
In -0.076910  8.843741  8.823365
In  2.948016  8.810421  5.951305
P  7.387501  1.477980  4.407842
P 10.352926  1.476068  1.471071
P  7.475194  4.403620  1.304846
P 10.315804  4.399301  4.460383
In  5.820546 -0.060437  0.110977
In  8.846445 -0.011037  2.922642
In  6.051643  3.018890  2.882699
In  8.967741  2.934919 -0.121230
P  7.425231  1.314380 10.446213
P 10.324513  1.445595  7.385044
P  7.240543  4.329864  7.429695
P 10.417579  4.419647 10.200251
In  5.827345  0.091890  5.903004
In  8.843742 -0.076910  8.823365
In  5.967555  2.779037  9.011067
In  8.810421  2.948016  5.951305
P  6.899877  6.899877  4.390854
P 10.253987  7.337981  1.535338
P  7.337981 10.253987  1.535338
P 10.222756 10.222756  4.406458
In  5.892980  5.892980 -0.053240
In  8.776134  5.828374  2.983698
In  5.828374  8.776134  2.983698
In  8.812526  8.812526  0.014401
P  7.368682  7.368682 10.276564
P 10.299979  7.323746  7.303897
P  7.323747 10.299978  7.303897
P 10.299657 10.299657 10.349290
In  8.800943  5.862044  8.776648
In  5.862044  8.800943  8.776648
In  8.663593  8.663592  5.829931
%ENDBLOCK POSITIONS_ABS

KPOINT_MP_GRID: 4 4 4
KPOINT_MP_OFFSET: 0.125 0.125 0.125
