#######################################################
#CASTEP cell file: /home/eng/phrbqc/GitHub/InPDislocs/Devel/Data_Devel/EOS/CASTEP_Files/ZB_EOS_1.2001/ZB_EOS_1.2001.cell
#Created using the Atomic Simulation Environment (ASE)#
#######################################################

%BLOCK LATTICE_CART
 7.082334  0.000000 -0.000000
 0.000000  7.082334 -0.000000
-0.000000 -0.000000  7.082334
%ENDBLOCK LATTICE_CART

%BLOCK POSITIONS_ABS
P  1.770584  1.770584  5.311751
P  5.311751  1.770584  1.770584
P  1.770584  5.311751  1.770584
P  5.311751  5.311751  5.311751
In  0.000000  0.000000  0.000000
In  3.541167  0.000000  3.541167
In  0.000000  3.541167  3.541167
In  3.541167  3.541167  0.000000
%ENDBLOCK POSITIONS_ABS

KPOINT_MP_GRID: 5 5 5
KPOINT_MP_OFFSET: 0.1 0.1 0.1
