# written by ASE

%BLOCK LATTICE_CART
11.801682 -0.000008 -0.000008
-0.000008 11.801682 -0.000008
-0.000008 -0.000008 11.801682
%ENDBLOCK LATTICE_CART

%BLOCK POSITIONS_ABS
P  1.442263  1.467154  4.416274
P  5.086995  1.006972  2.294765
P  1.434606  4.454258  1.467231
P  4.370180  4.488390  4.444046
P  1.374334  1.503788 10.202293
P  4.404917  1.465377  7.346960
P  1.444322  4.415840  7.346817
P  4.443711  4.473499 10.264398
P  1.434935  7.370955  4.402116
P  4.404530  7.404533  1.448124
P  1.415919 10.274787  1.468692
P  4.410501 10.218815  4.515677
P  1.445228  7.367369 10.307097
P  4.403051  7.310913  7.360110
P  1.436924 10.302640  7.353168
P  4.391775 10.227159 10.187821
P  7.441261  1.515560  4.495837
P 10.306472  1.462266  1.448620
P  7.385868  4.467815  1.428747
P 10.319822  4.413038  4.406354
P  7.348952  1.467831 10.301631
P 10.299028  1.413415  7.360520
P  7.371170  4.419787  7.356451
P 10.296533  4.412622 10.296502
P  7.360912  7.372312  4.401274
P 10.300708  7.338836  1.449248
P  7.376832 10.290026  1.434122
P 10.280581 10.318961  4.380586
P  7.373028  7.377833 10.296523
P 10.305533  7.362906  7.350674
P  7.363644 10.313676  7.344231
P 10.324698 10.318163 10.324337
In  0.015811  0.017928 -0.030782
In  2.847075 -0.173622  3.091960
In -0.024445  2.930453  2.919801
In  2.796470  3.121728 -0.193951
In -0.034005 -0.035884  5.866399
In  2.903841  0.000820  8.815193
In -0.084752  2.948396  8.764852
In  2.928508  2.937729  5.882784
In -0.034532  5.895618 -0.035820
In  2.929341  5.939210  2.914338
In -0.063955  8.817154  2.923595
In  2.921758  8.864936 -0.037444
In -0.017325  5.891082  5.873571
In  2.904330  5.895148  8.827632
In -0.033162  8.839886  8.832976
In  2.905536  8.773191  5.941676
In  5.922304 -0.151418 -0.164493
In  8.794704  0.021602  2.930603
In  6.023501  3.148859  3.095314
In  8.835927  2.931639 -0.022326
In  5.900888  0.009394  5.867775
In  8.824890 -0.036383  8.851453
In  5.885918  2.936988  8.810339
In  8.900829  2.950731  5.939998
In  5.880983  5.942227 -0.019654
In  8.845862  5.901504  2.946938
In  5.884557  8.863909  2.936834
In  8.859597  8.827411 -0.016730
In  5.904819  5.904842  5.888359
In  8.830862  5.894016  8.833170
In  5.901690  8.787554  8.763770
In  8.838355  8.844750  5.875916
P  3.701868  0.988146  0.671562
%ENDBLOCK POSITIONS_ABS

KPOINT_MP_GRID: 4 4 4
KPOINT_MP_OFFSET: 0.125 0.125 0.125
