# written by ASE

%BLOCK LATTICE_CART
11.801682 -0.000008 -0.000008
-0.000008 11.801682 -0.000008
-0.000008 -0.000008 11.801682
%ENDBLOCK LATTICE_CART

%BLOCK POSITIONS_ABS
P  1.441609  1.467600  4.416224
P  5.084932  1.007282  2.302509
P  1.435581  4.452639  1.465912
P  4.371284  4.489567  4.444702
P  1.373813  1.502183 10.201287
P  4.405013  1.465624  7.346506
P  1.444855  4.415724  7.346440
P  4.442694  4.472848 10.264027
P  1.434655  7.369549  4.401834
P  4.404468  7.405160  1.447649
P  1.415954 10.273501  1.469401
P  4.409211 10.217841  4.515379
P  1.445023  7.366989 10.307063
P  4.403070  7.311392  7.360451
P  1.436591 10.302624  7.352779
P  4.392573 10.226419 10.187185
P  7.442706  1.515410  4.496983
P 10.306338  1.462288  1.448429
P  7.386023  4.467010  1.429499
P 10.319734  4.413892  4.406100
P  7.348534  1.468171 10.301730
P 10.299048  1.414279  7.361084
P  7.371395  4.420345  7.356449
P 10.297078  4.413245 10.296572
P  7.360635  7.372812  4.400676
P 10.300643  7.339181  1.449153
P  7.375910 10.290172  1.432550
P 10.280301 10.319886  4.380342
P  7.373009  7.376335 10.296679
P 10.305516  7.363741  7.350395
P  7.363505 10.314246  7.343753
P 10.324369 10.318541 10.324185
In  0.016076  0.016880 -0.029697
In  2.846400 -0.172198  3.091376
In -0.025244  2.931162  2.919612
In  2.796865  3.118115 -0.194980
In -0.034349 -0.035052  5.866822
In  2.904877 -0.000157  8.814664
In -0.084159  2.948994  8.765037
In  2.929282  2.938011  5.881648
In -0.034054  5.895466 -0.035040
In  2.929704  5.938315  2.913422
In -0.064480  8.816980  2.924471
In  2.921273  8.864906 -0.038727
In -0.017549  5.891111  5.874229
In  2.904315  5.895175  8.827327
In -0.033061  8.840235  8.833236
In  2.904742  8.772384  5.941740
In  5.920593 -0.148991 -0.163290
In  8.793602  0.021266  2.929245
In  6.024329  3.148448  3.097137
In  8.836736  2.932030 -0.022887
In  5.899598  0.009157  5.866547
In  8.824492 -0.035742  8.851197
In  5.885864  2.937524  8.810064
In  8.901417  2.951633  5.940232
In  5.880287  5.940576 -0.019202
In  8.845627  5.901922  2.946637
In  5.884696  8.864794  2.936569
In  8.859382  8.827312 -0.017404
In  5.905232  5.905850  5.888968
In  8.831588  5.894371  8.832684
In  5.902781  8.787307  8.763512
In  8.838062  8.845393  5.875362
P  3.706284  0.987357  0.672409
%ENDBLOCK POSITIONS_ABS

KPOINT_MP_GRID: 4 4 4
KPOINT_MP_OFFSET: 0.125 0.125 0.125
