# written by ASE

%BLOCK LATTICE_CART
11.801682 -0.000008 -0.000008
-0.000008 11.801682 -0.000008
-0.000008 -0.000008 11.801682
%ENDBLOCK LATTICE_CART

%BLOCK POSITIONS_ABS
P  1.502126  1.216832  4.250625
P  4.250626  1.216836  1.502127
P  1.492859  4.420919  1.492859
In  0.083023 -0.019699  0.083023
In  4.427933  4.096383  4.427939
In  0.056403  2.910907  3.010145
In  3.010146  2.910908  0.056403
P  1.484566  1.481357 10.354248
P  4.400256  1.470446  7.412894
P  1.445074  4.422234  7.409429
P  4.435727  4.441154 10.350825
In -0.024940  0.004455  5.870687
In  2.955122 -0.025708  8.902808
In -0.009239  2.936093  8.887984
In  2.607132  2.629514  5.992695
P  1.472473  7.440926  4.453814
P  4.453815  7.440925  1.472472
P  1.616458 10.463258  1.616458
P  4.308957 10.549163  4.308956
In  0.012253  5.891428  0.012252
In  2.905687  6.021319  2.905686
In  0.062708  8.921389  2.905872
In  2.905872  8.921389  0.062708
P  1.479303  7.391491 10.350073
P  4.387689  7.433985  7.363141
P  1.461394 10.355635  7.383091
P  4.431767 10.283905 10.328683
In  0.007053  5.929602  5.912034
In  2.958466  5.919200  8.867405
In  0.012058  8.869518  8.864506
In  2.991491  8.998743  5.829206
P  7.412893  1.470447  4.400256
P 10.354248  1.481356  1.484566
P  7.409430  4.422236  1.445073
P 10.350827  4.441154  4.435727
In  5.870687  0.004456 -0.024938
In  8.902807 -0.025707  2.955123
In  5.992695  2.629520  2.607135
In  8.887983  2.936093 -0.009239
P  7.376770  1.489583 10.312388
P 10.312387  1.489583  7.376771
P  7.381090  4.467715  7.381089
P 10.333275  4.431802 10.333276
In  5.870722  0.022533  5.870721
In  8.860659 -0.006599  8.860659
In  5.893627  2.982057  8.841360
In  8.841362  2.982057  5.893626
P  7.363142  7.433984  4.387688
P 10.350074  7.391492  1.479302
P  7.383091 10.355635  1.461394
P 10.328682 10.283904  4.431766
In  5.912035  5.929602  0.007051
In  8.867407  5.919200  2.958465
In  5.829207  8.998742  2.991490
In  8.864506  8.869519  0.012058
P  7.390479  7.395965 10.325304
P 10.325305  7.395964  7.390478
P  7.369278 10.346254  7.369278
P 10.357323 10.350872 10.357322
In  5.912136  5.991722  5.912135
In  8.866252  5.912162  8.866252
In  5.905268  8.854427  8.836341
In  8.836341  8.854426  5.905268
%ENDBLOCK POSITIONS_ABS

KPOINT_MP_GRID: 4 4 4
KPOINT_MP_OFFSET: 0.125 0.125 0.125
