# written by ASE

%BLOCK LATTICE_CART
 5.897300 -0.000004 -0.000004
-0.000004  5.900841 -0.001774
-0.000004 -0.001774  5.900841
%ENDBLOCK LATTICE_CART

%BLOCK POSITIONS_ABS
P  1.474321  1.473879  4.425186
P  4.422973  1.474764  1.474764
P  1.474321  4.425186  1.473879
P  4.422970  4.424297  4.424297
In  0.000000  0.000000  0.000000
In  2.948648 -0.000889  2.950419
In -0.000004  2.949533  2.949533
In  2.948648  2.950419 -0.000889
%ENDBLOCK POSITIONS_ABS

FIX_ALL_CELL: TRUE
KPOINT_MP_GRID: 6 6 6
KPOINT_MP_OFFSET: 0.08333333333333333 0.08333333333333333 0.08333333333333333
