# written by ASE

%BLOCK LATTICE_CART
11.801682 -0.000008 -0.000008
-0.000008 11.801682 -0.000008
-0.000008 -0.000008 11.801682
%ENDBLOCK LATTICE_CART

%BLOCK POSITIONS_ABS
P  1.487094  1.487094  4.433648
P  4.433648  1.487094  1.487094
P  1.487094  4.433648  1.487094
P  4.536150  4.536150  4.536150
In  0.000001  0.000001  0.000001
In  2.957268  0.000322  2.957268
In  0.000322  2.957268  2.957268
In  2.957268  2.957268  0.000322
P  1.476129  1.476128 10.325543
P  4.426746  1.486117  7.374924
P  1.486117  4.426746  7.374924
P  4.426742  4.426742 10.315549
In -0.000003 -0.000003  5.900841
In  2.957264 -0.000332  8.844411
In -0.000332  2.957264  8.844411
In  3.007717  3.007717  5.870321
P  1.486117  7.374925  4.426746
P  4.426746  7.374925  1.486117
P  1.476129 10.325543  1.476128
P  4.426742 10.315549  4.426742
In -0.000003  5.900841 -0.000003
In  3.007717  5.870321  3.007717
In -0.000332  8.844411  2.957264
In  2.957264  8.844411 -0.000332
P  1.487085  7.368024 10.314578
P  4.536142  7.265519  7.265519
P  1.487085 10.314579  7.368023
P  4.433636 10.314575 10.314574
In -0.000007  5.900837  5.900837
In  3.007711  5.931351  8.793956
In  0.000313  8.844407  8.844407
In  3.007711  8.793956  5.931351
P  7.374925  1.486117  4.426746
P 10.325543  1.476129  1.476129
P  7.374925  4.426746  1.486117
P 10.315549  4.426742  4.426742
In  5.900841 -0.000003 -0.000003
In  8.844411 -0.000332  2.957264
In  5.870321  3.007717  3.007717
In  8.844411  2.957264 -0.000332
P  7.368024  1.487084 10.314579
P 10.314579  1.487084  7.368024
P  7.265519  4.536141  7.265519
P 10.314575  4.433636 10.314575
In  5.900837 -0.000008  5.900837
In  8.844407  0.000313  8.844407
In  5.931351  3.007711  8.793956
In  8.793956  3.007711  5.931351
P  7.265519  7.265519  4.536141
P 10.314579  7.368024  1.487084
P  7.368024 10.314579  1.487084
P 10.314575 10.314575  4.433636
In  5.900837  5.900837 -0.000008
In  8.793956  5.931351  3.007711
In  5.931351  8.793956  3.007711
In  8.844407  8.844407  0.000313
P  7.374916  7.374916 10.315545
P 10.315545  7.374916  7.374916
P  7.374916 10.315545  7.374916
P 10.325531 10.325531 10.325531
In  8.793951  5.870312  8.793951
In  5.870312  8.793951  8.793951
In  8.793951  8.793951  5.870312
%ENDBLOCK POSITIONS_ABS

KPOINT_MP_GRID: 4 4 4
KPOINT_MP_OFFSET: 0.125 0.125 0.125
