# written by ASE

%BLOCK LATTICE_CART
11.801682 -0.000008 -0.000008
-0.000008 11.801682 -0.000008
-0.000008 -0.000008 11.801682
%ENDBLOCK LATTICE_CART

%BLOCK POSITIONS_ABS
P  1.486914  1.486914  4.433534
P  4.433534  1.486914  1.486914
P  1.486914  4.433534  1.486914
P  4.535712  4.535712  4.535712
In  0.000001  0.000001  0.000001
In  2.957746 -0.000132  2.957746
In -0.000132  2.957746  2.957745
In  2.957746  2.957746 -0.000132
P  1.476334  1.476334 10.325338
P  4.427031  1.486875  7.374640
P  1.486875  4.427031  7.374640
P  4.427027  4.427027 10.314791
In -0.000003 -0.000003  5.900841
In  2.957741  0.000123  8.843934
In  0.000123  2.957741  8.843934
In  3.007711  3.007711  5.869677
P  1.486875  7.374640  4.427031
P  4.427031  7.374640  1.486875
P  1.476334 10.325338  1.476334
P  4.427027 10.314791  4.427026
In -0.000003  5.900841 -0.000003
In  3.007711  5.869677  3.007711
In  0.000123  8.843934  2.957741
In  2.957741  8.843934  0.000123
P  1.486905  7.368138 10.314758
P  4.535703  7.265957  7.265957
P  1.486905 10.314758  7.368137
P  4.433522 10.314754 10.314754
In -0.000007  5.900837  5.900837
In  3.007705  5.931995  8.793962
In -0.000141  8.843930  8.843930
In  3.007705  8.793962  5.931995
P  7.374640  1.486875  4.427031
P 10.325338  1.476334  1.476334
P  7.374640  4.427031  1.486875
P 10.314791  4.427027  4.427027
In  5.900841 -0.000003 -0.000003
In  8.843934  0.000123  2.957741
In  5.869677  3.007711  3.007711
In  8.843934  2.957741  0.000123
P  7.368138  1.486905 10.314758
P 10.314758  1.486905  7.368138
P  7.265957  4.535703  7.265957
P 10.314754  4.433522 10.314754
In  5.900837 -0.000007  5.900837
In  8.843930 -0.000141  8.843930
In  5.931995  3.007705  8.793962
In  8.793962  3.007705  5.931995
P  7.265957  7.265957  4.535703
P 10.314758  7.368138  1.486905
P  7.368138 10.314758  1.486905
P 10.314754 10.314754  4.433522
In  5.900837  5.900837 -0.000007
In  8.793962  5.931995  3.007705
In  5.931995  8.793962  3.007705
In  8.843930  8.843930 -0.000141
P  7.374632  7.374632 10.314787
P 10.314787  7.374632  7.374632
P  7.374632 10.314787  7.374632
P 10.325326 10.325326 10.325326
In  8.793957  5.869668  8.793957
In  5.869668  8.793957  8.793957
In  8.793957  8.793957  5.869668
%ENDBLOCK POSITIONS_ABS

KPOINT_MP_GRID: 4 4 4
KPOINT_MP_OFFSET: 0.125 0.125 0.125
