# written by ASE

%BLOCK LATTICE_CART
11.801682 -0.000008 -0.000008
-0.000008 11.801682 -0.000008
-0.000008 -0.000008 11.801682
%ENDBLOCK LATTICE_CART

%BLOCK POSITIONS_ABS
P  1.570427  1.570427  4.476120
P  4.476117  1.570422  1.570422
P  1.570427  4.476120  1.570427
P  5.277110  5.277143  5.277142
In -0.003459 -0.003459 -0.003459
In  2.960744  0.045227  2.960745
In  0.045228  2.960745  2.960745
In  2.960744  2.960745  0.045227
P  1.485848  1.485847 10.342838
P  4.441620  1.476552  7.352959
P  1.476549  4.441619  7.352959
P  4.406972  4.406972 10.297287
In  0.030534  0.030533  5.883380
In  2.956132  0.010713  8.849214
In  0.010713  2.956131  8.849214
In  3.163767  3.163768  5.896095
P  1.476549  7.352959  4.441619
P  4.441620  7.352959  1.476552
P  1.485847 10.342838  1.485847
P  4.406972 10.297287  4.406971
In  0.030534  5.883380  0.030533
In  3.163767  5.896095  3.163768
In  0.010713  8.849214  2.956131
In  2.956132  8.849214  0.010713
P  1.492834  7.370111 10.315416
P  4.541488  7.136963  7.136963
P  1.492834 10.315416  7.370111
P  4.443869 10.305775 10.305775
In -0.050078  5.888490  5.888490
In  2.987986  5.918869  8.784860
In -0.005102  8.840210  8.840210
In  2.987986  8.784860  5.918869
P  7.352960  1.476551  4.441620
P 10.342838  1.485848  1.485848
P  7.352960  4.441621  1.476551
P 10.297286  4.406972  4.406972
In  5.883380  0.030531  0.030531
In  8.849215  0.010713  2.956132
In  5.896095  3.163753  3.163753
In  8.849215  2.956132  0.010713
P  7.370111  1.492833 10.315417
P 10.315417  1.492833  7.370111
P  7.136975  4.541488  7.136976
P 10.305778  4.443869 10.305778
In  5.888489 -0.050077  5.888490
In  8.840210 -0.005102  8.840210
In  5.918872  2.987987  8.784861
In  8.784862  2.987988  5.918872
P  7.136975  7.136976  4.541488
P 10.315417  7.370111  1.492833
P  7.370111 10.315417  1.492833
P 10.305778 10.305778  4.443869
In  5.888489  5.888490 -0.050077
In  8.784862  5.918872  2.987988
In  5.918872  8.784862  2.987987
In  8.840210  8.840210 -0.005102
P  7.367717  7.367716 10.294434
P 10.294434  7.367717  7.367717
P  7.367717 10.294434  7.367716
P 10.322449 10.322449 10.322448
In  8.751339  5.860010  8.751339
In  5.860012  8.751336  8.751336
In  8.751339  8.751339  5.860010
%ENDBLOCK POSITIONS_ABS

KPOINT_MP_GRID: 4 4 4
KPOINT_MP_OFFSET: 0.125 0.125 0.125
