# written by ASE

%BLOCK LATTICE_CART
11.801682 -0.000008 -0.000008
-0.000008 11.801682 -0.000008
-0.000008 -0.000008 11.801682
%ENDBLOCK LATTICE_CART

%BLOCK POSITIONS_ABS
P  1.571986  1.571984  4.478374
P  4.478340  1.571922  1.571922
P  1.571986  4.478375  1.571985
P  5.281257  5.281671  5.281665
In -0.003508 -0.003505 -0.003505
In  2.961693  0.046911  2.961713
In  0.046925  2.961709  2.961709
In  2.961693  2.961713  0.046911
P  1.486584  1.486586 10.344404
P  4.441769  1.474233  7.354378
P  1.474203  4.441763  7.354378
P  4.406684  4.406682 10.295761
In  0.030233  0.030218  5.882624
In  2.955879  0.010806  8.850965
In  0.010797  2.955874  8.850965
In  3.166646  3.166663  5.901055
P  1.474203  7.354378  4.441763
P  4.441768  7.354378  1.474233
P  1.486584 10.344404  1.486586
P  4.406684 10.295761  4.406682
In  0.030234  5.882624  0.030218
In  3.166649  5.901055  3.166665
In  0.010797  8.850965  2.955874
In  2.955879  8.850965  0.010806
P  1.491331  7.371552 10.316568
P  4.535879  7.135330  7.135330
P  1.491331 10.316569  7.371552
P  4.444564 10.304703 10.304702
In -0.051758  5.887903  5.887902
In  2.984512  5.919190  8.787426
In -0.006830  8.839211  8.839211
In  2.984512  8.787426  5.919190
P  7.354383  1.474226  4.441780
P 10.344407  1.486589  1.486589
P  7.354383  4.441780  1.474225
P 10.295751  4.406684  4.406684
In  5.882621  0.030194  0.030194
In  8.850972  0.010797  2.955880
In  5.901055  3.166471  3.166471
In  8.850972  2.955880  0.010797
P  7.371555  1.491313 10.316583
P 10.316581  1.491308  7.371551
P  7.135468  4.535885  7.135490
P 10.304737  4.444566 10.304734
In  5.887893 -0.051731  5.887901
In  8.839209 -0.006834  8.839210
In  5.919229  2.984520  8.787440
In  8.787443  2.984531  5.919236
P  7.135466  7.135488  4.535885
P 10.316581  7.371552  1.491309
P  7.371555 10.316583  1.491314
P 10.304736 10.304733  4.444566
In  5.887893  5.887901 -0.051731
In  8.787442  5.919236  2.984531
In  5.919229  8.787440  2.984519
In  8.839209  8.839211 -0.006834
P  7.366674  7.366664 10.292897
P 10.292895  7.366680  7.366680
P  7.366674 10.292897  7.366663
P 10.322130 10.322128 10.322128
In  8.748813  5.859499  8.748810
In  5.859532  8.748779  8.748779
In  8.748812  8.748809  5.859499
%ENDBLOCK POSITIONS_ABS

KPOINT_MP_GRID: 4 4 4
KPOINT_MP_OFFSET: 0.125 0.125 0.125
