#######################################################
#CASTEP cell file: /home/eng/phrbqc/GitHub/InPDislocs/Devel/Data_Devel/EOS/CASTEP_Files/WZ_EOS_0.8698/WZ_EOS_0.8698.cell
#Created using the Atomic Simulation Environment (ASE)#
#######################################################

%BLOCK LATTICE_CART
 3.622253 -0.000038  0.000000
 1.811094  3.136982 -0.000000
 0.000000 -0.000000  5.948523
%ENDBLOCK LATTICE_CART

%BLOCK POSITIONS_ABS
P  1.811096  1.045641 -0.000077
P  3.622248  2.091309  2.974184
In  1.811107  1.045647  2.227383
In  3.622237  2.091303  5.201644
%ENDBLOCK POSITIONS_ABS

KPOINT_MP_GRID: 11 11 7
KPOINT_MP_OFFSET: 0.045455 0.045455 0.071429
