#######################################################
#CASTEP cell file: /home/eng/phrbqc/GitHub/InPDislocs/Devel/Data_Devel/IsolatedAtom/Iso_In/Iso_In.cell
#Created using the Atomic Simulation Environment (ASE)#
#######################################################

%BLOCK LATTICE_CART
12.000000  0.000000  0.000000
 0.000000 12.000000  0.000000
 0.000000  0.000000 12.000000
%ENDBLOCK LATTICE_CART

%BLOCK POSITIONS_ABS
In  0.000000  0.000000  0.000000
%ENDBLOCK POSITIONS_ABS

KPOINT_MP_GRID: 3 3 3
KPOINT_MP_OFFSET: 0.166667 0.166667 0.166667
