# written by ASE

%BLOCK LATTICE_CART
14.454087 20.441167  0.000000
14.454087 -20.441167 -0.000000
 0.000000  0.000000  4.172536
%ENDBLOCK LATTICE_CART

%BLOCK POSITIONS_ABS
In  9.071115 -3.271469  0.000000
P  8.719713 -0.708408  0.000000
In  5.545063 -3.383174  2.086268
P  5.704288 -0.800973  2.086268
In  9.540030  0.207148  2.086268
P  8.939338  2.645262  2.086268
In 13.162392  0.381119  0.000000
P 12.689547  2.894910  0.000000
In  7.650825  3.420931  0.000000
P  7.550682  6.075776  0.000000
In 11.348665  3.671151  2.086268
P 11.156954  6.231313  2.086268
In  9.909471  7.045168  0.000000
P  9.800202  9.660622  0.000000
In  6.324113  6.933751  2.086268
P 20.333648 -10.508398  2.086268
In  8.574527 10.508398  2.086268
P 22.584062 -6.933751  2.086268
In 12.161967 10.578424  0.000000
P 12.081654 13.159554  0.000000
In 21.357493 -6.075776  0.000000
P 21.257349 -3.420931 -0.000000
In 10.859215 14.020162  2.086268
P 24.958524 -3.483580  2.086268
In 16.218627 -2.894910  0.000000
P 15.745783 -0.381119  0.000000
In 12.585899 -3.048635  2.086268
P 12.154248 -0.501955  2.086268
In 16.753927  0.501955  2.086268
P 16.322276  3.048635  2.086268
In 20.188462  0.708408  0.000000
P 19.837060  3.271469  0.000000
In 15.016551  3.842057  0.000000
P 14.787498  6.380335  0.000000
In 18.593434  4.025446  2.086268
P 18.405690  6.542080  2.086268
In 17.148447  7.324872  0.000000
P 17.019716  9.845765  0.000000
In 13.524664  7.183941  2.086268
P 13.398547  9.746660  2.086268
In 15.774731 10.656134  2.086268
P 15.689089 13.195208  2.086268
In 19.410991 10.747150  0.000000
P 19.308491 13.239008  0.000000
In 14.470849 14.031806  0.000000
P 14.487203 16.589849  0.000000
In 18.072017 14.063985  2.086268
P  3.203505 -4.187385  2.086268
In 23.733747 -2.597344 -0.000000
P 24.041232 -0.105972  0.000000
In 19.968837 -2.645262  2.086268
P 19.368145 -0.207148  2.086268
In 23.203887  0.800973  2.086268
P 23.363112  3.383174  2.086268
In 26.590967  0.744368  0.000000
P 12.398347 -17.113840 -0.000000
In 22.149244  4.224551  0.000000
P 22.037258  6.687589  0.000000
In 25.704670  4.187385  2.086268
P 10.836158 -14.063985  2.086268
In  9.599684 -13.239008 -0.000000
P  9.497184 -10.747150 -0.000000
In 20.781692  7.476604  2.086268
P 20.666997  9.950684  2.086268
In  8.241178 -9.950684  2.086268
P  8.126483 -7.476604  2.086268
In 11.888459 -9.845765  0.000000
P 11.759728 -7.324872 -0.000000
In  6.870917 -6.687589  0.000000
P  6.758931 -4.224551 -0.000000
In 10.502485 -6.542080  2.086268
P 10.314741 -4.025446  2.086268
In 16.509828 17.113840  0.000000
P  2.317208 -0.744368  0.000000
In 13.325420 17.435145  2.086268
P 27.670908 -0.093648  2.086268
In  1.237267  0.093648  2.086268
P 15.582755 -17.435145  2.086268
In  4.866943  0.105972  0.000000
P  5.174428  2.597344 -0.000000
In 14.420972 -16.589849 -0.000000
P 14.437326 -14.031806 -0.000000
In  3.949651  3.483580  2.086268
P 18.048960 -14.020162  2.086268
In 16.826521 -13.159554 -0.000000
P 16.746208 -10.578424 -0.000000
In 13.219086 -13.195208  2.086268
P 13.133444 -10.656134  2.086268
In 15.509628 -9.746660  2.086268
P 15.383511 -7.183941  2.086268
In 19.107973 -9.660622 -0.000000
P 18.998704 -7.045168 -0.000000
In 14.120677 -6.380335  0.000000
P 13.891624 -3.842057 -0.000000
In 17.751221 -6.231313  2.086268
P 17.559510 -3.671151  2.086268
%ENDBLOCK POSITIONS_ABS

FIX_ALL_CELL: TRUE
KPOINT_MP_GRID: 2 2 8
KPOINT_MP_OFFSET: 0.25 0.25 0.0625
