#######################################################
#CASTEP cell file: /home/eng/phrbqc/GitHub/InPDislocs/Devel/Data_Devel/EOS/CASTEP_Files/WZ_EOS_0.9124/WZ_EOS_0.9124.cell
#Created using the Atomic Simulation Environment (ASE)#
#######################################################

%BLOCK LATTICE_CART
 3.799841 -0.000040  0.000000
 1.899886  3.290778 -0.000000
 0.000000 -0.000000  6.240159
%ENDBLOCK LATTICE_CART

%BLOCK POSITIONS_ABS
P  1.899888  1.096905 -0.000081
P  3.799835  2.193839  3.119999
In  1.899900  1.096911  2.336584
In  3.799824  2.193833  5.456664
%ENDBLOCK POSITIONS_ABS

KPOINT_MP_GRID: 11 11 7
KPOINT_MP_OFFSET: 0.045455 0.045455 0.071429
