#######################################################
#CASTEP cell file: /home/eng/phrbqc/GitHub/InPDislocs/Devel/Data_Devel/EOS/CASTEP_Files/WZ_EOS_0.7472/WZ_EOS_0.7472.cell
#Created using the Atomic Simulation Environment (ASE)#
#######################################################

%BLOCK LATTICE_CART
 3.111690 -0.000032  0.000000
 1.555817  2.694819 -0.000000
 0.000000 -0.000000  5.110068
%ENDBLOCK LATTICE_CART

%BLOCK POSITIONS_ABS
P  1.555819  0.898256 -0.000066
P  3.111686  1.796536  2.554968
In  1.555828  0.898261  1.913429
In  3.111677  1.796530  4.468463
%ENDBLOCK POSITIONS_ABS

KPOINT_MP_GRID: 13 13 7
KPOINT_MP_OFFSET: 0.038462 0.038462 0.071429
