# written by ASE

%BLOCK LATTICE_CART
11.801682 -0.000008 -0.000008
-0.000008 11.801682 -0.000008
-0.000008 -0.000008 11.801682
%ENDBLOCK LATTICE_CART

%BLOCK POSITIONS_ABS
P  1.322468  1.753808  4.627335
P  4.627249  1.753784  1.322631
P  1.487281  4.406387  1.487284
In  0.079620 -0.074971  0.079617
In  3.296844  1.065811  3.296614
In -0.119341  3.040914  2.926226
In  2.926233  3.040910 -0.119343
P  1.474328  1.450142 10.326863
P  4.460660  1.450673  7.429654
P  1.441212  4.570876  7.497474
P  4.430949  4.528066 10.264283
In -0.005272 -0.083878  5.904477
In  2.964677 -0.041762  8.887969
In  0.003949  2.943735  8.870288
In  2.937037  3.054653  6.166255
P  1.581843  7.314716  4.388148
P  4.388148  7.314718  1.581846
P  1.669622 10.556048  1.669631
P  4.300157 10.608673  4.300163
In  0.002347  5.896311  0.002347
In  3.123106  5.624893  3.123104
In  0.180642  8.884167  2.885764
In  2.885769  8.884167  0.180640
P  1.462255  7.445506 10.394384
P  4.444495  7.440773  7.257827
P  1.497581 10.300647  7.380172
P  4.400564 10.238648 10.368804
In  0.016769  5.960447  5.883414
In  2.978732  6.092987  8.854140
In -0.021121  8.864428  8.868679
In  2.971445  8.953509  5.781891
P  7.429660  1.450670  4.460664
P 10.326867  1.450140  1.474337
P  7.497490  4.570890  1.441215
P 10.264294  4.528055  4.430955
In  5.904476 -0.083887 -0.005277
In  8.887966 -0.041762  2.964675
In  6.166231  3.054637  2.937022
In  8.870281  2.943736  0.003945
P  7.358273  1.477837 10.368214
P 10.368227  1.477840  7.358258
P  7.324568  4.418516  7.324564
P 10.317052  4.421329 10.317053
In  5.893400 -0.048321  5.893402
In  8.863012  0.077861  8.863024
In  5.918106  2.965573  8.882012
In  8.882006  2.965574  5.918107
P  7.257828  7.440773  4.444496
P 10.394385  7.445505  1.462257
P  7.380174 10.300644  1.497582
P 10.368806 10.238652  4.400562
In  5.883412  5.960445  0.016768
In  8.854131  6.092987  2.978719
In  5.781891  8.953508  2.971438
In  8.868677  8.864429 -0.021120
P  7.386703  7.380602 10.315832
P 10.315832  7.380603  7.386701
P  7.400008 10.359098  7.400005
P 10.333013 10.372635 10.333011
In  5.734891  5.764459  5.734892
In  8.820309  5.877946  8.820311
In  5.919413  8.842826  8.827867
In  8.827864  8.842825  5.919417
%ENDBLOCK POSITIONS_ABS

KPOINT_MP_GRID: 4 4 4
KPOINT_MP_OFFSET: 0.125 0.125 0.125
