# written by ASE

%BLOCK LATTICE_CART
11.801682 -0.000008 -0.000008
-0.000008 11.801682 -0.000008
-0.000008 -0.000008 11.801682
%ENDBLOCK LATTICE_CART

%BLOCK POSITIONS_ABS
P  1.325194  1.753436  4.628695
P  4.628609  1.753413  1.325356
P  1.490394  4.401740  1.490396
In  0.076618 -0.074577  0.076615
In  3.294073  1.059987  3.293844
In -0.119749  3.035714  2.926419
In  2.926426  3.035710 -0.119751
P  1.473056  1.449433 10.324708
P  4.458198  1.454778  7.425727
P  1.442598  4.573318  7.496770
P  4.430411  4.526588 10.266724
In -0.003677 -0.083951  5.905105
In  2.965576 -0.040620  8.886482
In  0.004911  2.945221  8.867441
In  2.944721  3.067760  6.155818
P  1.582534  7.313295  4.386738
P  4.386737  7.313297  1.582536
P  1.668323 10.560831  1.668332
P  4.299685 10.605737  4.299692
In  0.005684  5.893928  0.005684
In  3.125636  5.622942  3.125634
In  0.182337  8.886814  2.885451
In  2.885456  8.886814  0.182334
P  1.462082  7.446217 10.397304
P  4.445205  7.436791  7.258519
P  1.498871 10.299284  7.379888
P  4.400451 10.240015 10.369672
In  0.016683  5.961441  5.883486
In  2.978476  6.093338  8.858045
In -0.020833  8.863446  8.868774
In  2.972190  8.950127  5.782679
P  7.425733  1.454776  4.458202
P 10.324712  1.449431  1.473064
P  7.496785  4.573332  1.442601
P 10.266734  4.526577  4.430417
In  5.905104 -0.083960 -0.003682
In  8.886480 -0.040620  2.965573
In  6.155794  3.067744  2.944706
In  8.867435  2.945223  0.004907
P  7.357474  1.477637 10.368277
P 10.368289  1.477640  7.357459
P  7.326022  4.415880  7.326018
P 10.318375  4.421359 10.318375
In  5.891160 -0.045848  5.891162
In  8.862012  0.078513  8.862024
In  5.916276  2.964603  8.882507
In  8.882501  2.964604  5.916277
P  7.258521  7.436791  4.445206
P 10.397305  7.446216  1.462083
P  7.379890 10.299282  1.498872
P 10.369674 10.240019  4.400448
In  5.883484  5.961438  0.016682
In  8.858037  6.093338  2.978463
In  5.782679  8.950126  2.972184
In  8.868772  8.863447 -0.020831
P  7.386247  7.380923 10.314666
P 10.314666  7.380924  7.386245
P  7.397891 10.360667  7.397888
P 10.331258 10.371811 10.331255
In  5.736725  5.757798  5.736726
In  8.821058  5.877179  8.821059
In  5.918708  8.843649  8.826822
In  8.826820  8.843648  5.918712
%ENDBLOCK POSITIONS_ABS

KPOINT_MP_GRID: 4 4 4
KPOINT_MP_OFFSET: 0.125 0.125 0.125
