#######################################################
#CASTEP cell file: /home/eng/phrbqc/GitHub/InPDislocs/Devel/Data_Devel/EOS/CASTEP_Files/ZB_EOS_0.8804/ZB_EOS_0.8804.cell
#Created using the Atomic Simulation Environment (ASE)#
#######################################################

%BLOCK LATTICE_CART
 5.195191  0.000000 -0.000000
 0.000000  5.195191 -0.000000
-0.000000 -0.000000  5.195191
%ENDBLOCK LATTICE_CART

%BLOCK POSITIONS_ABS
P  1.298798  1.298798  3.896393
P  3.896393  1.298798  1.298798
P  1.298798  3.896393  1.298798
P  3.896393  3.896393  3.896393
In  0.000000  0.000000  0.000000
In  2.597595  0.000000  2.597595
In  0.000000  2.597595  2.597595
In  2.597595  2.597595  0.000000
%ENDBLOCK POSITIONS_ABS

KPOINT_MP_GRID: 7 7 7
KPOINT_MP_OFFSET: 0.071429 0.071429 0.071429
