#######################################################
#CASTEP cell file: /home/eng/phrbqc/GitHub/InPDislocs/Devel/Data_Devel/EOS/CASTEP_Files/ZB_EOS_0.8217/ZB_EOS_0.8217.cell
#Created using the Atomic Simulation Environment (ASE)#
#######################################################

%BLOCK LATTICE_CART
 4.849215  0.000000 -0.000000
 0.000000  4.849215 -0.000000
-0.000000 -0.000000  4.849215
%ENDBLOCK LATTICE_CART

%BLOCK POSITIONS_ABS
P  1.212304  1.212304  3.636911
P  3.636911  1.212304  1.212304
P  1.212304  3.636911  1.212304
P  3.636911  3.636911  3.636911
In  0.000000  0.000000  0.000000
In  2.424607  0.000000  2.424607
In  0.000000  2.424607  2.424607
In  2.424607  2.424607  0.000000
%ENDBLOCK POSITIONS_ABS

KPOINT_MP_GRID: 7 7 7
KPOINT_MP_OFFSET: 0.071429 0.071429 0.071429
