# written by ASE

%BLOCK LATTICE_CART
 4.172831  0.000000  0.000000
 0.000000  4.172831  0.000000
 0.000000  2.086415 11.802547
%ENDBLOCK LATTICE_CART

%BLOCK POSITIONS_ABS
In  0.000000  0.000000  0.411115
In  2.086415  2.086415  3.133871
In  0.000000  0.000000  5.867212
In  2.086415  2.086415  8.618108
P  2.086415  0.000000  1.716995
P  0.000000  2.086415  4.472836
P  2.086415  0.000000  7.206739
P  0.000000  2.086415  9.882040
%ENDBLOCK POSITIONS_ABS

FIX_ALL_CELL: TRUE
KPOINT_MP_GRID: 8 10 4
KPOINT_MP_OFFSET: 0.0625 0.05 0.125

%BLOCK IONIC_CONSTRAINTS
1 In 1 1 0 0
2 In 1 0 1 0
3 In 2 1 0 0
4 In 2 0 1 0
5 In 3 1 0 0
6 In 3 0 1 0
7 In 4 1 0 0
8 In 4 0 1 0
9 P 1 1 0 0
10 P 1 0 1 0
11 P 2 1 0 0
12 P 2 0 1 0
13 P 3 1 0 0
14 P 3 0 1 0
15 P 4 1 0 0
16 P 4 0 1 0
%ENDBLOCK IONIC_CONSTRAINTS
