#######################################################
#CASTEP cell file: /home/eng/phrbqc/GitHub/InPDislocs/Devel/Data_Devel/EOS/CASTEP_Files/ZB_EOS_0.8377/ZB_EOS_0.8377.cell
#Created using the Atomic Simulation Environment (ASE)#
#######################################################

%BLOCK LATTICE_CART
 4.943572  0.000000 -0.000000
 0.000000  4.943572 -0.000000
-0.000000 -0.000000  4.943572
%ENDBLOCK LATTICE_CART

%BLOCK POSITIONS_ABS
P  1.235893  1.235893  3.707679
P  3.707679  1.235893  1.235893
P  1.235893  3.707679  1.235893
P  3.707679  3.707679  3.707679
In  0.000000  0.000000  0.000000
In  2.471786  0.000000  2.471786
In  0.000000  2.471786  2.471786
In  2.471786  2.471786  0.000000
%ENDBLOCK POSITIONS_ABS

KPOINT_MP_GRID: 7 7 7
KPOINT_MP_OFFSET: 0.071429 0.071429 0.071429
