#######################################################
#CASTEP cell file: /home/eng/phrbqc/GitHub/InPDislocs/Devel/Data_Devel/send_to_hpc/Sulis/WZ_Bulk/WZ_Bulk.cell
#Created using the Atomic Simulation Environment (ASE)#
#######################################################

%BLOCK LATTICE_CART
 4.164622 -0.000043  0.000000
 2.082274  3.606690 -0.000000
 0.000000 -0.000000  6.839210
%ENDBLOCK LATTICE_CART

%BLOCK POSITIONS_ABS
P  2.082276  1.202207 -0.000089
P  4.164616  2.404446  3.419516
In  2.082288  1.202214  2.560894
In  4.164604  2.404439  5.980499
%ENDBLOCK POSITIONS_ABS

KPOINT_MP_GRID: 12 12 8
KPOINT_MP_OFFSET: 0.05 0.05 0.08333333333333333
