#######################################################
#CASTEP cell file: /home/eng/phrbqc/GitHub/InPDislocs/Devel/Data_Devel/EOS/CASTEP_Files/WZ_EOS_0.987/WZ_EOS_0.987.cell
#Created using the Atomic Simulation Environment (ASE)#
#######################################################

%BLOCK LATTICE_CART
 4.110618 -0.000043  0.000000
 2.055272  3.559920 -0.000000
 0.000000 -0.000000  6.750523
%ENDBLOCK LATTICE_CART

%BLOCK POSITIONS_ABS
P  2.055274  1.186618 -0.000088
P  4.110612  2.373267  3.375174
In  2.055287  1.186625  2.527686
In  4.110600  2.373260  5.902948
%ENDBLOCK POSITIONS_ABS

KPOINT_MP_GRID: 11 11 5
KPOINT_MP_OFFSET: 0.045455 0.045455 0.1
