# written by ASE

%BLOCK LATTICE_CART
14.454049 20.441112  0.000000
14.454049 -20.441112  0.000000
-0.000000  0.000000  4.172525
%ENDBLOCK LATTICE_CART

%BLOCK POSITIONS_ABS
In  9.908595 -2.949976  3.657440
P 10.253352 -0.397574  3.130282
In  6.186051 -2.961432  1.978860
P  5.982924 -0.391641  2.112604
In  8.149256  0.731785  2.500910
P  8.261445  3.197841  2.270249
In 11.525965  0.527361  0.987294
P 11.802979  3.030600  0.470622
In  7.014699  3.994161  0.168380
P  7.134088  6.509628  0.091713
In 10.689550  3.971741  2.528353
P 10.760642  6.487364  2.305456
In  9.558437  7.322807  0.192588
P  9.639670  9.846402  0.000379
In  5.915249  7.328340  2.160368
P 20.464081 -10.588746  2.006065
In  8.431616 10.680169  2.062786
P 22.976234 -7.238657  1.866797
In 12.067141 10.659430  0.063205
P 12.151954 13.180790 -0.112588
In 21.781077 -6.385995  3.927645
P 21.880457 -3.865352  3.700658
In 10.948719 14.014339  1.951726
P 25.459478 -3.920004  1.843447
In 17.161015 -2.952017  3.594856
P 17.408841 -0.411196  3.239526
In 13.561216 -2.965122  1.495952
P 13.841755 -0.424477  1.085359
In 15.063869  0.474157  3.129721
P 15.376375  2.996223  2.658102
In 18.623032  0.479305  1.111730
P 18.969843  2.999550  0.611744
In 14.227934  3.892851  0.551460
P 14.355178  6.431011  0.304747
In 17.796919  3.884711  2.683282
P 17.941709  6.433088  2.427378
In 16.770140  7.306270  0.323011
P 16.875065  9.855537  0.139407
In 13.186841  7.302511  2.368564
P 13.272579  9.830509  2.169410
In 15.679231 10.707534  2.211488
P 15.757026 13.252296  2.085024
In 19.295590 10.710845  0.112649
P 19.392453 13.274391 -0.008143
In 14.539525 14.087772 -0.011231
P 14.580354 16.630485 -0.058622
In 18.169851 14.100014  2.074701
P  3.767122 -3.782232  2.027688
In 24.287409 -3.019739  3.923148
P 24.446242 -0.615072  3.292485
In 20.749190 -2.944501  1.578773
P 20.957549 -0.407668  1.226963
In 22.222514  0.448415  3.265799
P 22.609027  2.960090  2.652424
In 26.445862  0.374585  0.202471
P 26.337066  2.942010  0.294215
In 21.413432  3.843574  0.559844
P 21.544534  6.402989  0.306797
In 25.072035  3.734105  2.406629
P 10.713391 -14.116194  2.251207
In  9.526921 -13.227636  4.336949
P  9.634627 -10.652188  4.205801
In 20.366770  7.281472  2.381493
P 20.480328  9.841756  2.207334
In  8.452544 -9.763897  2.116371
P  8.557864 -7.185926  1.994862
In 12.056159 -9.805836  4.092557
P 12.175227 -7.242351  3.915113
In  7.363457 -6.315949  4.082549
P  7.465030 -3.720497  4.037411
In 10.991479 -6.372610  1.817293
P 11.116502 -3.805489  1.587436
In  2.522804 -2.963623  4.118196
P  2.421329 -0.412124  0.017616
In 13.353725 17.478814  2.021014
P 27.752857 -0.425762  2.224521
In  1.193727  0.421482  2.102716
P 15.531782 -17.462233  2.215406
In  4.756058  0.497130  0.036304
P  4.676892  3.036728  0.104820
In 14.288266 -16.634452  4.311831
P 14.351211 -14.075096  4.230303
In  3.448035  3.882001  2.187251
P 17.980151 -14.018738  2.119397
In 16.754022 -13.195263  4.196102
P 16.853621 -10.648913  4.063357
In 13.129735 -13.240573  2.141690
P 13.242800 -10.676078  2.014394
In 15.654759 -9.800752  1.963513
P 15.778306 -7.249062  1.775528
In 19.255962 -9.762293  4.073484
P 19.364473 -7.231047  3.878903
In 14.597262 -6.387614  3.844387
P 14.736198 -3.834852  3.603814
In 18.189478 -6.364398  1.769824
P 18.326241 -3.822781  1.535853
%ENDBLOCK POSITIONS_ABS

FIX_ALL_CELL: TRUE
KPOINT_MP_GRID: 2 2 8
KPOINT_MP_OFFSET: 0.25 0.25 0.0625
