# written by ASE

%BLOCK LATTICE_CART
14.454049 20.441112  0.000000
14.454049 -20.441112  0.000000
-0.000000  0.000000  4.172525
%ENDBLOCK LATTICE_CART

%BLOCK POSITIONS_ABS
In  9.889164 -2.943101  3.659209
P 10.265658 -0.415341  3.102795
In  6.169602 -2.962275  1.978327
P  5.955796 -0.401323  2.116774
In  8.142694  0.698317  2.502798
P  8.265313  3.172769  2.264007
In 11.520926  0.508422  0.965938
P 11.815648  3.018206  0.437334
In  7.039401  3.982481  0.158519
P  7.138326  6.504058  0.086549
In 10.689971  3.962732  2.492723
P 10.765461  6.485529  2.300104
In  9.561191  7.313946  0.189258
P  9.643605  9.843546  0.009661
In  5.926639  7.315376  2.155325
P 20.464692 -10.595766  2.004991
In  8.432891 10.663559  2.074043
P 22.970316 -7.248108  1.887657
In 12.057981 10.687242  0.089546
P 12.124806 13.228364 -0.021145
In 21.767720 -6.416869  3.946543
P 21.838781 -3.896321  3.752137
In 10.915024 14.061388  2.052145
P 25.399837 -3.838250  2.011974
In 17.120544 -2.961094  3.613198
P 17.379014 -0.423405  3.265289
In 13.528876 -2.973299  1.499454
P 13.841140 -0.436473  1.062245
In 15.044420  0.480347  3.102231
P 15.398341  2.998912  2.629986
In 18.632938  0.431145  1.144394
P 19.010199  2.951335  0.577890
In 14.229432  3.893886  0.524302
P 14.357334  6.439316  0.301953
In 17.834528  3.854961  2.652751
P 17.960067  6.405569  2.407499
In 16.781075  7.279568  0.306850
P 16.880966  9.832508  0.135640
In 13.182506  7.313568  2.368029
P 13.264606  9.851577  2.193316
In 15.684783 10.687544  2.210203
P 15.750058 13.236404  2.100738
In 19.306415 10.678858  0.089374
P 19.392704 13.246263 -0.013805
In 14.537976 14.074905  0.006889
P 14.555339 16.622660 -0.027002
In 18.170027 14.082269  2.071495
P  3.745996 -3.800720  2.039901
In 24.200097 -2.964781  4.089357
P 24.148542 -0.448435  4.460485
In 20.671295 -2.976332  1.630844
P 20.910579 -0.538653  1.009981
In 22.700230  0.323241  2.537893
P 22.711846  2.903885  2.481755
In 26.503943  0.397603  4.212954
P 26.385983  2.951656  0.168183
In 21.471034  3.735332  0.410611
P 21.572027  6.319917  0.230818
In 25.135844  3.759248  2.271487
P 10.737492 -14.109779  2.189005
In  9.533741 -13.243269  4.277067
P  9.628936 -10.667599  4.178968
In 20.395995  7.219303  2.313927
P 20.488508  9.791657  2.180206
In  8.447979 -9.774495  2.091544
P  8.549083 -7.201150  1.989055
In 12.046183 -9.809906  4.076943
P 12.157919 -7.251079  3.902520
In  7.361700 -6.315904  4.079583
P  7.447203 -3.727238  4.038806
In 10.977193 -6.371405  1.804898
P 11.089205 -3.813889  1.589349
In  2.510066 -2.973572  4.133870
P  2.381534 -0.420324  0.055824
In 13.339734 17.462942  2.058360
P 27.725286 -0.431645  2.125342
In  1.190274  0.442055  2.149888
P 15.552328 -17.450376  2.178065
In  4.737331  0.480550  0.035812
P  4.690573  3.026887  0.089205
In 14.329735 -16.615034  4.266622
P 14.370834 -14.063322  4.203519
In  3.484232  3.869210  2.171439
P 17.990887 -14.027754  2.107645
In 16.777405 -13.196122  4.183926
P 16.851905 -10.650044  4.056371
In 13.149309 -13.232916  2.113198
P 13.238291 -10.673843  1.998050
In 15.649662 -9.809018  1.957078
P 15.754011 -7.261150  1.769779
In 19.255733 -9.776436  4.072472
P 19.350727 -7.242580  3.887379
In 14.575284 -6.393036  3.838061
P 14.702367 -3.843562  3.610601
In 18.160773 -6.398099  1.778665
P 18.267689 -3.861002  1.559686
%ENDBLOCK POSITIONS_ABS

KPOINT_MP_GRID: 2 2 8
KPOINT_MP_OFFSET: 0.25 0.25 0.0625
