# written by ASE

%BLOCK LATTICE_CART
14.454049 20.441112  0.000000
14.454049 -20.441112  0.000000
-0.000000  0.000000  4.172525
%ENDBLOCK LATTICE_CART

%BLOCK POSITIONS_ABS
In  9.887530 -2.943763  3.660630
P 10.255551 -0.412383  3.118384
In  6.168643 -2.965147  1.978785
P  5.956528 -0.402827  2.113161
In  8.141867  0.702836  2.488325
P  8.267401  3.176226  2.259808
In 11.517655  0.506104  0.979078
P 11.817517  3.013646  0.435014
In  7.039227  3.982986  0.154539
P  7.138259  6.504727  0.085404
In 10.694095  3.962015  2.489615
P 10.766461  6.484936  2.299048
In  9.561677  7.313296  0.188156
P  9.643828  9.843134  0.009140
In  5.926601  7.316082  2.154407
P 20.464840 -10.595102  2.004877
In  8.433253 10.663833  2.073532
P 22.970254 -7.247645  1.888545
In 12.058318 10.686719  0.088345
P 12.124898 13.227818 -0.021511
In 21.767738 -6.416006  3.947516
P 21.838897 -3.895357  3.753420
In 10.915391 14.061041  2.051770
P 25.400219 -3.838450  2.011734
In 17.120534 -2.961522  3.615118
P 17.377693 -0.424438  3.267173
In 13.529293 -2.974714  1.502050
P 13.838184 -0.437586  1.067574
In 15.043015  0.478933  3.106237
P 15.399772  2.995854  2.626017
In 18.632743  0.429985  1.145377
P 19.010684  2.949477  0.574582
In 14.230995  3.891715  0.519906
P 14.358125  6.437683  0.299758
In 17.835721  3.853262  2.648969
P 17.960990  6.403936  2.404519
In 16.782154  7.278391  0.303748
P 16.881187  9.831321  0.134283
In 13.183670  7.313267  2.365782
P 13.265010  9.851069  2.192064
In 15.685243 10.686705  2.208893
P 15.749802 13.235453  2.100758
In 19.306500 10.677910  0.088422
P 19.391952 13.245241 -0.013539
In 14.538125 14.074245  0.006980
P 14.555458 16.622038 -0.026456
In 18.169515 14.081428  2.071703
P  3.745002 -3.801635  2.040844
In 24.200823 -2.964309  4.088873
P 24.147943 -0.448294  4.462555
In 20.671050 -2.975400  1.632285
P 20.910528 -0.538336  1.011816
In 22.700351  0.323630  2.539308
P 22.712339  2.903452  2.478215
In 26.503271  0.397102  4.212693
P 26.385868  2.951266  0.167032
In 21.471448  3.734478  0.406252
P 21.572844  6.319361  0.229036
In 25.136137  3.759563  2.270274
P 10.737947 -14.109406  2.189033
In  9.534297 -13.243188  4.277118
P  9.629166 -10.667558  4.179227
In 20.396928  7.218782  2.312001
P 20.488768  9.791083  2.179265
In  8.448143 -9.774780  2.091792
P  8.548801 -7.201431  1.990410
In 12.046203 -9.809392  4.077819
P 12.157489 -7.250404  3.904140
In  7.360895 -6.317017  4.081092
P  7.446023 -3.729335  4.039255
In 10.976444 -6.370912  1.806603
P 11.089132 -3.813316  1.590823
In  2.509963 -2.973469  4.134718
P  2.381801 -0.420054  0.055432
In 13.340238 17.462358  2.058859
P 27.724883 -0.432308  2.125122
In  1.189695  0.442093  2.149764
P 15.552000 -17.450131  2.178163
In  4.738353  0.479746  0.033276
P  4.691096  3.026279  0.088120
In 14.329316 -16.614738  4.266839
P 14.370756 -14.062996  4.203925
In  3.484149  3.869169  2.170714
P 17.990832 -14.027528  2.107866
In 16.777283 -13.195866  4.184275
P 16.852030 -10.649745  4.057013
In 13.149538 -13.232356  2.113631
P 13.238369 -10.673257  1.998902
In 15.649814 -9.808792  1.957774
P 15.753971 -7.260919  1.770892
In 19.255838 -9.775965  4.072452
P 19.350722 -7.242202  3.888002
In 14.575036 -6.393334  3.839224
P 14.702684 -3.843814  3.612862
In 18.160753 -6.397769  1.779303
P 18.268046 -3.860525  1.561233
%ENDBLOCK POSITIONS_ABS

KPOINT_MP_GRID: 2 2 8
KPOINT_MP_OFFSET: 0.25 0.25 0.0625
