#######################################################
#CASTEP cell file: /home/eng/phrbqc/GitHub/InPDislocs/Devel/Data_Devel/EOS/CASTEP_Files/ZB_EOS_1.0722/ZB_EOS_1.0722.cell
#Created using the Atomic Simulation Environment (ASE)#
#######################################################

%BLOCK LATTICE_CART
 6.327477  0.000000 -0.000000
 0.000000  6.327477 -0.000000
-0.000000 -0.000000  6.327477
%ENDBLOCK LATTICE_CART

%BLOCK POSITIONS_ABS
P  1.581869  1.581869  4.745608
P  4.745608  1.581869  1.581869
P  1.581869  4.745608  1.581869
P  4.745608  4.745608  4.745608
In  0.000000  0.000000  0.000000
In  3.163738  0.000000  3.163738
In  0.000000  3.163738  3.163738
In  3.163738  3.163738  0.000000
%ENDBLOCK POSITIONS_ABS

KPOINT_MP_GRID: 7 7 7
KPOINT_MP_OFFSET: 0.071429 0.071429 0.071429
