#######################################################
#CASTEP cell file: /home/eng/phrbqc/GitHub/InPDislocs/Devel/Data_Devel/EOS/CASTEP_Files/ZB_EOS_0.8644/ZB_EOS_0.8644.cell
#Created using the Atomic Simulation Environment (ASE)#
#######################################################

%BLOCK LATTICE_CART
 5.100834  0.000000 -0.000000
 0.000000  5.100834 -0.000000
-0.000000 -0.000000  5.100834
%ENDBLOCK LATTICE_CART

%BLOCK POSITIONS_ABS
P  1.275208  1.275208  3.825625
P  3.825625  1.275208  1.275208
P  1.275208  3.825625  1.275208
P  3.825625  3.825625  3.825625
In  0.000000  0.000000  0.000000
In  2.550417  0.000000  2.550417
In  0.000000  2.550417  2.550417
In  2.550417  2.550417  0.000000
%ENDBLOCK POSITIONS_ABS

KPOINT_MP_GRID: 7 7 7
KPOINT_MP_OFFSET: 0.071429 0.071429 0.071429
