#######################################################
#CASTEP cell file: /home/eng/phrbqc/GitHub/InPDislocs/Devel/Data_Devel/EOS/CASTEP_Files/ZB_EOS_0.9869/ZB_EOS_0.9869.cell
#Created using the Atomic Simulation Environment (ASE)#
#######################################################

%BLOCK LATTICE_CART
 5.824239  0.000000 -0.000000
 0.000000  5.824239 -0.000000
-0.000000 -0.000000  5.824239
%ENDBLOCK LATTICE_CART

%BLOCK POSITIONS_ABS
P  1.456060  1.456060  4.368179
P  4.368179  1.456060  1.456060
P  1.456060  4.368179  1.456060
P  4.368179  4.368179  4.368179
In  0.000000  0.000000  0.000000
In  2.912119  0.000000  2.912119
In  0.000000  2.912119  2.912119
In  2.912119  2.912119  0.000000
%ENDBLOCK POSITIONS_ABS

KPOINT_MP_GRID: 7 7 7
KPOINT_MP_OFFSET: 0.071429 0.071429 0.071429
