#######################################################
#CASTEP cell file: /home/eng/phrbqc/GitHub/InPDislocs/Devel/Data_Devel/EOS/CASTEP_Files/WZ_EOS_0.9497/WZ_EOS_0.9497.cell
#Created using the Atomic Simulation Environment (ASE)#
#######################################################

%BLOCK LATTICE_CART
 3.955229 -0.000041  0.000000
 1.977579  3.425349 -0.000000
 0.000000 -0.000000  6.495341
%ENDBLOCK LATTICE_CART

%BLOCK POSITIONS_ABS
P  1.977581  1.141761 -0.000084
P  3.955224  2.283553  3.247586
In  1.977593  1.141768  2.432135
In  3.955212  2.283546  5.679806
%ENDBLOCK POSITIONS_ABS

KPOINT_MP_GRID: 11 11 7
KPOINT_MP_OFFSET: 0.045455 0.045455 0.071429
