# written by ASE

%BLOCK LATTICE_CART
11.801682 -0.000008 -0.000008
-0.000008 11.801682 -0.000008
-0.000008 -0.000008 11.801682
%ENDBLOCK LATTICE_CART

%BLOCK POSITIONS_ABS
P  1.356541  1.736431  4.609886
P  4.609886  1.736431  1.356540
P  1.423151  4.389589  1.423151
In  0.070756 -0.090776  0.070756
In  3.435798  2.765990  3.435798
In -0.119858  3.000404  2.946727
In  2.946727  3.000404 -0.119858
P  1.467513  1.432697 10.329145
P  4.480765  1.387330  7.469742
P  1.423749  4.550926  7.517251
P  4.427357  4.499238 10.256707
In  0.042720 -0.086709  5.861368
In  2.953558 -0.085029  8.908559
In -0.016429  2.925240  8.877925
In  2.918106  2.968616  6.290444
P  1.559486  7.282538  4.407046
P  4.407046  7.282538  1.559486
P  1.637130 10.458422  1.637130
P  4.263296 10.535202  4.263295
In -0.035996  5.891180 -0.035997
In  3.024626  5.656474  3.024626
In  0.155281  8.836112  2.899987
In  2.899987  8.836112  0.155281
P  1.444443  7.431255 10.376343
P  4.440765  7.407043  7.293325
P  1.508577 10.279462  7.359422
P  4.406159 10.220792 10.380319
In  0.004424  5.920618  5.886947
In  2.961016  6.064220  8.873235
In -0.021506  8.860468  8.842832
In  3.003384  8.914255  5.776741
P  7.469742  1.387331  4.480765
P 10.329145  1.432697  1.467513
P  7.517251  4.550926  1.423748
P 10.256707  4.499238  4.427357
In  5.861368 -0.086709  0.042720
In  8.908559 -0.085028  2.953558
In  6.290444  2.968616  2.918106
In  8.877925  2.925240 -0.016429
P  7.353553  1.444638 10.382995
P 10.382996  1.444638  7.353553
P  7.330664  4.385653  7.330663
P 10.290728  4.413796 10.290727
In  5.853051 -0.096181  5.853051
In  8.853116  0.057464  8.853116
In  5.926304  2.931545  8.892416
In  8.892416  2.931545  5.926304
P  7.293325  7.407043  4.440765
P 10.376344  7.431256  1.444443
P  7.359422 10.279463  1.508577
P 10.380319 10.220792  4.406159
In  5.886947  5.920618  0.004424
In  8.873235  6.064220  2.961016
In  5.776741  8.914255  3.003383
In  8.842832  8.860468 -0.021506
P  7.376763  7.363524 10.314079
P 10.314080  7.363524  7.376763
P  7.385233 10.344231  7.385233
P 10.323524 10.351397 10.323523
In  5.788945  5.797331  5.788944
In  8.807221  5.881304  8.807221
In  5.922295  8.837050  8.829844
In  8.829844  8.837050  5.922295
%ENDBLOCK POSITIONS_ABS

KPOINT_MP_GRID: 4 4 4
KPOINT_MP_OFFSET: 0.125 0.125 0.125
