# written by ASE

%BLOCK LATTICE_CART
11.801682 -0.000008 -0.000008
-0.000008 11.801682 -0.000008
-0.000008 -0.000008 11.801682
%ENDBLOCK LATTICE_CART

%BLOCK POSITIONS_ABS
P  1.355798  1.728776  4.606281
P  4.606281  1.728776  1.355798
P  1.417081  4.393765  1.417081
In  0.073422 -0.089564  0.073422
In  3.435143  2.771865  3.435143
In -0.119038  3.004848  2.948404
In  2.948404  3.004849 -0.119038
P  1.468402  1.433133 10.330449
P  4.482933  1.384676  7.471769
P  1.424699  4.547576  7.515298
P  4.429459  4.501371 10.254041
In  0.038932 -0.088064  5.863279
In  2.952382 -0.085471  8.909035
In -0.015914  2.923673  8.879140
In  2.917466  2.961009  6.290858
P  1.561820  7.280370  4.407914
P  4.407914  7.280370  1.561820
P  1.636727 10.454288  1.636726
P  4.263621 10.538109  4.263621
In -0.040691  5.894770 -0.040692
In  3.019891  5.656547  3.019891
In  0.156191  8.834491  2.902650
In  2.902650  8.834491  0.156191
P  1.446058  7.431709 10.375370
P  4.440035  7.411217  7.294069
P  1.507364 10.279408  7.359463
P  4.405630 10.219851 10.379842
In  0.004152  5.921743  5.888572
In  2.960796  6.063914  8.870237
In -0.020738  8.861428  8.844384
In  3.003284  8.916977  5.775315
P  7.471769  1.384676  4.482933
P 10.330449  1.433133  1.468402
P  7.515298  4.547576  1.424699
P 10.254042  4.501372  4.429459
In  5.863279 -0.088064  0.038932
In  8.909035 -0.085471  2.952382
In  6.290858  2.961010  2.917466
In  8.879140  2.923673 -0.015914
P  7.354155  1.445377 10.381958
P 10.381959  1.445377  7.354154
P  7.330059  4.388436  7.330058
P 10.289238  4.412720 10.289237
In  5.855470 -0.099166  5.855470
In  8.853818  0.056789  8.853818
In  5.927210  2.932346  8.891257
In  8.891257  2.932346  5.927210
P  7.294070  7.411217  4.440035
P 10.375370  7.431709  1.446058
P  7.359463 10.279408  1.507364
P 10.379842 10.219851  4.405630
In  5.888572  5.921743  0.004152
In  8.870238  6.063914  2.960796
In  5.775316  8.916977  3.003284
In  8.844384  8.861428 -0.020739
P  7.378157  7.364934 10.314921
P 10.314922  7.364935  7.378157
P  7.386943 10.343108  7.386943
P 10.325216 10.352925 10.325216
In  5.788683  5.803785  5.788682
In  8.806972  5.882193  8.806972
In  5.922690  8.837627  8.831469
In  8.831469  8.837627  5.922690
%ENDBLOCK POSITIONS_ABS

KPOINT_MP_GRID: 4 4 4
KPOINT_MP_OFFSET: 0.125 0.125 0.125
