#######################################################
#CASTEP cell file: /home/eng/phrbqc/GitHub/InPDislocs/Devel/Data_Devel/EOS/CASTEP_Files/ZB_EOS_0.9283/ZB_EOS_0.9283.cell
#Created using the Atomic Simulation Environment (ASE)#
#######################################################

%BLOCK LATTICE_CART
 5.478262  0.000000 -0.000000
 0.000000  5.478262 -0.000000
-0.000000 -0.000000  5.478262
%ENDBLOCK LATTICE_CART

%BLOCK POSITIONS_ABS
P  1.369566  1.369566  4.108697
P  4.108697  1.369566  1.369566
P  1.369566  4.108697  1.369566
P  4.108697  4.108697  4.108697
In  0.000000  0.000000  0.000000
In  2.739131  0.000000  2.739131
In  0.000000  2.739131  2.739131
In  2.739131  2.739131  0.000000
%ENDBLOCK POSITIONS_ABS

KPOINT_MP_GRID: 7 7 7
KPOINT_MP_OFFSET: 0.071429 0.071429 0.071429
