# written by ASE

%BLOCK LATTICE_CART
 5.901274  0.000000  0.000000
 0.000000  4.172831  0.000000
 0.000000  2.086415 25.036983
%ENDBLOCK LATTICE_CART

%BLOCK POSITIONS_ABS
In  2.950637  2.086415 10.422070
In  2.950637  2.086415 18.780613
In  0.000000  0.000000 16.727009
In  2.950637  2.086415 14.606980
In  0.000000  0.000000 12.528498
In  0.000000  0.000000 20.960285
In  0.000000  0.000000  8.343588
In  2.950637  2.086415 22.907898
In  0.000000  0.000000  4.169955
In  2.950637  2.086415  1.990283
In  0.000000  0.000000  0.042670
In  2.950637  2.086415  6.223559
P  1.475318  2.086415  8.327737
P  4.425955  0.000000 10.433427
P  4.425955  0.000000  6.251910
P  1.475318  2.086415 12.517141
P  4.425955  0.000000 14.622831
P  1.475318  2.086415  4.126131
P  1.475318  2.086415 16.698658
P  4.425955  0.000000 18.824437
P  4.425955  0.000000  2.081281
P  1.475318  2.086415 20.869287
P  4.425955  0.000000 23.077573
P  1.475318  2.086415 -0.127004
%ENDBLOCK POSITIONS_ABS

FIX_ALL_CELL: TRUE
KPOINT_MP_GRID: 6 10 2
KPOINT_MP_OFFSET: 0.08333333333333333 0.05 0.25

%BLOCK IONIC_CONSTRAINTS
1 In 1 1 0 0
2 In 1 0 1 0
3 In 2 1 0 0
4 In 2 0 1 0
5 In 3 1 0 0
6 In 3 0 1 0
7 In 4 1 0 0
8 In 4 0 1 0
9 In 5 1 0 0
10 In 5 0 1 0
11 In 6 1 0 0
12 In 6 0 1 0
13 In 7 1 0 0
14 In 7 0 1 0
15 In 8 1 0 0
16 In 8 0 1 0
17 In 9 1 0 0
18 In 9 0 1 0
19 In 10 1 0 0
20 In 10 0 1 0
21 In 11 1 0 0
22 In 11 0 1 0
23 In 12 1 0 0
24 In 12 0 1 0
25 P 1 1 0 0
26 P 1 0 1 0
27 P 2 1 0 0
28 P 2 0 1 0
29 P 3 1 0 0
30 P 3 0 1 0
31 P 4 1 0 0
32 P 4 0 1 0
33 P 5 1 0 0
34 P 5 0 1 0
35 P 6 1 0 0
36 P 6 0 1 0
37 P 7 1 0 0
38 P 7 0 1 0
39 P 8 1 0 0
40 P 8 0 1 0
41 P 9 1 0 0
42 P 9 0 1 0
43 P 10 1 0 0
44 P 10 0 1 0
45 P 11 1 0 0
46 P 11 0 1 0
47 P 12 1 0 0
48 P 12 0 1 0
%ENDBLOCK IONIC_CONSTRAINTS
