#######################################################
#CASTEP cell file: /home/eng/phrbqc/GitHub/InPDislocs/Devel/Data_Devel/EOS/CASTEP_Files/WZ_EOS_0.6992/WZ_EOS_0.6992.cell
#Created using the Atomic Simulation Environment (ASE)#
#######################################################

%BLOCK LATTICE_CART
 2.911905 -0.000030  0.000000
 1.455926  2.521798 -0.000000
 0.000000 -0.000000  4.781977
%ENDBLOCK LATTICE_CART

%BLOCK POSITIONS_ABS
P  1.455928  0.840583 -0.000062
P  2.911901  1.681189  2.390926
In  1.455936  0.840588  1.790578
In  2.911892  1.681184  4.181566
%ENDBLOCK POSITIONS_ABS

KPOINT_MP_GRID: 15 15 7
KPOINT_MP_OFFSET: 0.033333 0.033333 0.071429
