#######################################################
#CASTEP cell file: /home/eng/phrbqc/GitHub/InPDislocs/Devel/Data_Devel/EOS/CASTEP_Files/ZB_EOS_1.1468/ZB_EOS_1.1468.cell
#Created using the Atomic Simulation Environment (ASE)#
#######################################################

%BLOCK LATTICE_CART
 6.767810  0.000000 -0.000000
 0.000000  6.767810 -0.000000
-0.000000 -0.000000  6.767810
%ENDBLOCK LATTICE_CART

%BLOCK POSITIONS_ABS
P  1.691953  1.691953  5.075858
P  5.075858  1.691953  1.691953
P  1.691953  5.075858  1.691953
P  5.075858  5.075858  5.075858
In  0.000000  0.000000  0.000000
In  3.383905  0.000000  3.383905
In  0.000000  3.383905  3.383905
In  3.383905  3.383905  0.000000
%ENDBLOCK POSITIONS_ABS

KPOINT_MP_GRID: 5 5 5
KPOINT_MP_OFFSET: 0.1 0.1 0.1
