# written by ASE

%BLOCK LATTICE_CART
14.454049 20.441112  0.000000
14.454049 -20.441112  0.000000
-0.000000  0.000000  4.172525
%ENDBLOCK LATTICE_CART

%BLOCK POSITIONS_ABS
In  9.899531 -2.944732  3.655657
P 10.283029 -0.418849  3.102829
In  6.179273 -2.959224  1.971906
P  5.977238 -0.398346  2.107859
In  8.163547  0.697644  2.498836
P  8.261148  3.173066  2.271608
In 11.537648  0.502547  0.966958
P 11.809751  3.013205  0.442784
In  7.033667  3.981656  0.166073
P  7.130886  6.502167  0.089866
In 10.684867  3.957495  2.497855
P 10.761107  6.478507  2.300384
In  9.554990  7.305538  0.189001
P  9.640171  9.833104 -0.001995
In  5.917546  7.312822  2.158595
P 20.459111 -10.598428  2.002435
In  8.428555 10.655912  2.061297
P 22.971526 -7.256782  1.861957
In 12.063660 10.646991  0.068943
P 12.147437 13.179952 -0.082862
In 21.769583 -6.420764  3.920589
P 21.854145 -3.898792  3.690403
In 10.937461 13.999069  1.985960
P 25.442645 -3.918185  1.861656
In 17.136933 -2.956570  3.592412
P 17.408165 -0.417474  3.239750
In 13.540990 -2.975898  1.492857
P 13.860146 -0.439022  1.068199
In 15.059855  0.475383  3.110972
P 15.387798  2.994654  2.638326
In 18.626981  0.461609  1.117898
P 18.985054  2.981604  0.602136
In 14.220672  3.884695  0.531712
P 14.357431  6.426940  0.303189
In 17.806408  3.875906  2.672839
P 17.950034  6.423595  2.424316
In 16.771250  7.293063  0.320749
P 16.879759  9.842647  0.135629
In 13.181522  7.293226  2.368058
P 13.273153  9.826023  2.174573
In 15.683209 10.691130  2.207686
P 15.755665 13.237620  2.080255
In 19.299416 10.705692  0.106201
P 19.395111 13.266704 -0.017762
In 14.543454 14.073396 -0.016925
P 14.566966 16.619676 -0.063024
In 18.170998 14.094832  2.064809
P  3.754416 -3.791872  2.021178
In 24.252782 -3.048926  3.920561
P 24.258447 -0.570131  4.175425
In 20.714247 -2.972719  1.564892
P 20.952491 -0.463007  1.057644
In 22.296681  0.397865  3.007426
P 22.633977  2.940301  2.624796
In 26.543767  0.405127  4.178975
P 26.369094  2.946045  0.242770
In 21.427190  3.824904  0.544703
P 21.555272  6.383618  0.291843
In 25.092517  3.719108  2.359336
P 10.717630 -14.135299  2.226942
In  9.535124 -13.235427  4.314554
P  9.631185 -10.660842  4.196691
In 20.375584  7.267392  2.369620
P 20.482875  9.828242  2.200292
In  8.451462 -9.765131  2.108294
P  8.556458 -7.194050  1.991786
In 12.049908 -9.808901  4.084827
P 12.167446 -7.250284  3.902686
In  7.368861 -6.309141  4.081300
P  7.456405 -3.722597  4.033434
In 10.986268 -6.370724  1.804819
P 11.100804 -3.814382  1.585570
In  2.517921 -2.970062  4.112423
P  2.413395 -0.418327  0.022022
In 13.348274 17.456839  2.018705
P 27.766582 -0.436218  2.089166
In  1.220626  0.434807  2.113328
P 15.542723 -17.457680  2.198006
In  4.764091  0.486472  0.026908
P  4.684958  3.029962  0.097525
In 14.318050 -16.619491  4.291787
P 14.358277 -14.068264  4.216993
In  3.472866  3.868280  2.180769
P 17.980628 -14.028834  2.113719
In 16.765726 -13.197424  4.190275
P 16.847844 -10.650972  4.058159
In 13.129449 -13.245442  2.127345
P 13.236062 -10.681278  2.005967
In 15.647670 -9.808274  1.958879
P 15.765598 -7.257739  1.766488
In 19.251378 -9.775599  4.070058
P 19.352793 -7.240615  3.873296
In 14.585763 -6.392284  3.835118
P 14.718385 -3.842153  3.602682
In 18.172376 -6.380510  1.764448
P 18.298575 -3.837775  1.536106
%ENDBLOCK POSITIONS_ABS

KPOINT_MP_GRID: 2 2 8
KPOINT_MP_OFFSET: 0.25 0.25 0.0625
