# written by ASE

%BLOCK LATTICE_CART
14.454049 20.441112  0.000000
14.454049 -20.441112  0.000000
-0.000000  0.000000  4.172525
%ENDBLOCK LATTICE_CART

%BLOCK POSITIONS_ABS
In  9.897749 -2.944957  3.657163
P 10.272675 -0.415458  3.118332
In  6.178403 -2.961839  1.972507
P  5.978039 -0.399604  2.104490
In  8.162570  0.702748  2.484381
P  8.263363  3.177079  2.267555
In 11.534173  0.500527  0.980051
P 11.811715  3.009072  0.440376
In  7.033694  3.982549  0.162251
P  7.130957  6.503185  0.088735
In 10.689085  3.957230  2.494635
P 10.762222  6.478329  2.299366
In  9.555576  7.305173  0.187935
P  9.640567  9.832947 -0.002340
In  5.917678  7.313874  2.157699
P 20.459395 -10.597469  2.002364
In  8.429093 10.656268  2.060980
P 22.971686 -7.256285  1.862915
In 12.064006 10.647154  0.068205
P 12.147461 13.180160 -0.082520
In 21.769688 -6.420024  3.921584
P 21.853529 -3.897830  3.692803
In 10.937755 13.999760  1.986289
P 25.442586 -3.917389  1.863364
In 17.136432 -2.957043  3.594613
P 17.405490 -0.418508  3.241288
In 13.541054 -2.976858  1.495456
P 13.856945 -0.439666  1.072825
In 15.057623  0.474999  3.114138
P 15.389396  2.992506  2.634715
In 18.624894  0.460428  1.118291
P 18.986343  2.978966  0.597962
In 14.222306  3.883086  0.527737
P 14.358157  6.425859  0.301240
In 17.808502  3.873955  2.668208
P 17.951114  6.421892  2.421544
In 16.772402  7.291878  0.317858
P 16.880100  9.841518  0.134495
In 13.182711  7.293533  2.366043
P 13.273554  9.826167  2.173789
In 15.683841 10.690494  2.206599
P 15.755569 13.236884  2.080642
In 19.299562 10.704959  0.105301
P 19.394474 13.265846 -0.017279
In 14.543781 14.073040 -0.016446
P 14.567127 16.619420 -0.062025
In 18.170660 14.094176  2.065250
P  3.753554 -3.792643  2.022381
In 24.252508 -3.048585  3.922423
P 24.258746 -0.569405  4.173521
In 20.713158 -2.971994  1.567474
P 20.950840 -0.463461  1.058374
In 22.295194  0.397466  3.007534
P 22.635022  2.939673  2.621644
In 26.544000  0.405821  4.181217
P 26.370049  2.946806  0.241498
In 21.428370  3.824111  0.541196
P 21.555877  6.383224  0.289874
In 25.093369  3.719622  2.357808
P 10.718149 -14.134680  2.226684
In  9.535644 -13.235145  4.314152
P  9.631454 -10.660523  4.196856
In 20.376481  7.267229  2.367477
P 20.483213  9.827937  2.199387
In  8.451740 -9.765092  2.108439
P  8.556210 -7.194018  1.993234
In 12.049947 -9.807990  4.085843
P 12.166984 -7.249220  3.904407
In  7.368136 -6.309968  4.082912
P  7.455216 -3.724437  4.034030
In 10.985520 -6.369843  1.806620
P 11.100511 -3.813415  1.587140
In  2.518061 -2.969806  4.113540
P  2.413999 -0.417851  0.021497
In 13.348729 17.456688  2.019669
P 27.766750 -0.436426  2.091264
In  1.220548  0.435232  2.112967
P 15.543097 -17.457014  2.197544
In  4.765371  0.485978  0.024657
P  4.685850  3.029636  0.096539
In 14.318690 -16.618286  4.291427
P 14.358411 -14.067205  4.217550
In  3.473324  3.868668  2.180149
P 17.980789 -14.028228  2.113973
In 16.765867 -13.196677  4.190653
P 16.848049 -10.650264  4.058842
In 13.129640 -13.244566  2.127984
P 13.236090 -10.680383  2.006955
In 15.647758 -9.807835  1.959617
P 15.765358 -7.257308  1.767595
In 19.251581 -9.774902  4.070080
P 19.352817 -7.240068  3.873820
In 14.585451 -6.392145  3.836270
P 14.718208 -3.841952  3.604962
In 18.172192 -6.380351  1.765003
P 18.298169 -3.837543  1.537981
%ENDBLOCK POSITIONS_ABS

KPOINT_MP_GRID: 2 2 8
KPOINT_MP_OFFSET: 0.25 0.25 0.0625
