# written by ASE

%BLOCK LATTICE_CART
14.454049 20.441112  0.000000
14.454049 -20.441112  0.000000
-0.000000  0.000000  4.172525
%ENDBLOCK LATTICE_CART

%BLOCK POSITIONS_ABS
In  9.897516 -2.945149  3.657468
P 10.273213 -0.415788  3.118296
In  6.177725 -2.961983  1.972703
P  5.979420 -0.399652  2.106083
In  8.163700  0.703026  2.483999
P  8.262390  3.177399  2.268125
In 11.534210  0.500529  0.979907
P 11.810879  3.009025  0.440599
In  7.032306  3.982812  0.162831
P  7.130072  6.503359  0.089113
In 10.688185  3.957301  2.494841
P 10.761532  6.478372  2.299622
In  9.554731  7.305372  0.188187
P  9.639731  9.833194 -0.001728
In  5.916321  7.313554  2.158126
P 20.458596 -10.597613  2.002557
In  8.427930 10.656672  2.061582
P 22.970767 -7.255599  1.866773
In 12.064533 10.642482  0.067556
P 12.151376 13.172472 -0.099996
In 21.769741 -6.417835  3.926913
P 21.857057 -3.891380  3.712878
In 10.942076 13.988997  1.965422
P 25.445682 -3.933576  1.875137
In 17.134951 -2.960345  3.598052
P 17.406644 -0.422253  3.230983
In 13.540514 -2.976751  1.496496
P 13.856971 -0.439506  1.076329
In 15.057566  0.473793  3.118601
P 15.388005  2.991240  2.635624
In 18.615792  0.467259  1.104686
P 18.984208  2.984565  0.596862
In 14.221445  3.882227  0.528536
P 14.358147  6.424687  0.301124
In 17.804544  3.876683  2.667542
P 17.949965  6.424030  2.422137
In 16.771250  7.293346  0.318281
P 16.879890  9.842419  0.134818
In 13.182514  7.291825  2.365744
P 13.274365  9.823732  2.172945
In 15.683679 10.690640  2.206846
P 15.756551 13.236654  2.080952
In 19.298906 10.706989  0.106531
P 19.394624 13.267220 -0.017527
In 14.544863 14.072762 -0.016129
P 14.565353 16.619385 -0.058582
In 18.170934 14.095177  2.064754
P  3.752671 -3.792008  2.022180
In 24.259980 -3.071747  3.952605
P 24.399598 -0.619966  3.567694
In 20.717841 -2.973017  1.586213
P 20.948475 -0.445361  1.152415
In 22.207123  0.435476  3.168455
P 22.621673  2.947747  2.642666
In 26.535733  0.411302  4.288328
P 26.359659  2.951606  0.269256
In 21.425573  3.840766  0.555090
P 21.555106  6.393443  0.297484
In 25.080789  3.719833  2.380816
P 10.716820 -14.134420  2.235467
In  9.536743 -13.232512  4.321695
P  9.631606 -10.658879  4.198970
In 20.374058  7.272630  2.373896
P 20.482670  9.831306  2.201016
In  8.451888 -9.763938  2.110196
P  8.556504 -7.193280  1.993842
In 12.050449 -9.808527  4.086529
P 12.167419 -7.249781  3.904636
In  7.368408 -6.309421  4.083433
P  7.454874 -3.724089  4.034262
In 10.985970 -6.370069  1.806814
P 11.100411 -3.813632  1.587498
In  2.516265 -2.969040  4.113393
P  2.419657 -0.417224  0.008013
In 13.347150 17.458935  2.022273
P 27.773300 -0.437000  2.162929
In  1.222822  0.429843  2.095722
P 15.539338 -17.462319  2.202374
In  4.768856  0.487336  0.026926
P  4.684190  3.030295  0.097609
In 14.316802 -16.623717  4.298023
P 14.356004 -14.072518  4.218620
In  3.469543  3.867600  2.181103
P 17.979107 -14.029008  2.113989
In 16.763239 -13.198129  4.190545
P 16.847724 -10.651111  4.059023
In 13.129521 -13.246727  2.129287
P 13.236377 -10.681862  2.007638
In 15.647887 -9.808214  1.959787
P 15.766380 -7.257329  1.768065
In 19.251230 -9.774421  4.070213
P 19.353572 -7.238981  3.874119
In 14.585744 -6.393095  3.836768
P 14.717326 -3.842780  3.606235
In 18.173248 -6.378904  1.765361
P 18.301702 -3.835265  1.541904
%ENDBLOCK POSITIONS_ABS

KPOINT_MP_GRID: 2 2 8
KPOINT_MP_OFFSET: 0.25 0.25 0.0625
