# written by ASE

%BLOCK LATTICE_CART
14.454049 20.441112  0.000000
14.454049 -20.441112  0.000000
-0.000000  0.000000  4.172525
%ENDBLOCK LATTICE_CART

%BLOCK POSITIONS_ABS
In  9.899335 -2.944955  3.655990
P 10.283736 -0.419227  3.102778
In  6.178517 -2.959375  1.972126
P  5.978745 -0.398372  2.109445
In  8.164820  0.697914  2.498421
P  8.260130  3.173401  2.272225
In 11.537885  0.502516  0.966775
P 11.808931  3.013151  0.443058
In  7.032169  3.981926  0.166697
P  7.129904  6.502359  0.090284
In 10.683948  3.957568  2.498106
P 10.760355  6.478566  2.300661
In  9.554055  7.305792  0.189269
P  9.639218  9.833427 -0.001380
In  5.916048  7.312495  2.159063
P 20.458228 -10.598565  2.002659
In  8.427256 10.656483  2.061904
P 22.970479 -7.255874  1.866013
In 12.064211 10.641919  0.068062
P 12.151527 13.171731 -0.101563
In 21.769632 -6.418086  3.926144
P 21.857575 -3.891797  3.711444
In 10.941981 13.987562  1.963696
P 25.445992 -3.935128  1.871238
In 17.135596 -2.959947  3.596100
P 17.409903 -0.421538  3.228394
In 13.540551 -2.975774  1.493976
P 13.860444 -0.438846  1.071918
In 15.060272  0.473983  3.115702
P 15.386493  2.993209  2.639208
In 18.618075  0.468534  1.102917
P 18.982694  2.987434  0.601111
In 14.219888  3.883682  0.532476
P 14.357488  6.425618  0.303041
In 17.802330  3.878639  2.672260
P 17.948860  6.425674  2.424867
In 16.770155  7.294514  0.321121
P 16.879530  9.843580  0.135954
In 13.181348  7.291330  2.367713
P 13.274036  9.823361  2.173501
In 15.683021 10.691372  2.207915
P 15.756529 13.237556  2.080623
In 19.298706 10.707881  0.107565
P 19.395241 13.268215 -0.018051
In 14.544326 14.073375 -0.016530
P 14.564736 16.619972 -0.059026
In 18.171201 14.095924  2.064236
P  3.753388 -3.791159  2.021001
In 24.261235 -3.072903  3.948654
P 24.401511 -0.621467  3.557508
In 20.719170 -2.972700  1.584464
P 20.950963 -0.443910  1.154423
In 22.207979  0.435989  3.171889
P 22.620449  2.948633  2.646359
In 26.534606  0.410600  4.286710
P 26.358080  2.950574  0.272692
In 21.424199  3.842001  0.559000
P 21.554380  6.394400  0.300222
In 25.079353  3.719271  2.384742
P 10.716221 -14.135068  2.236427
In  9.536157 -13.232899  4.322793
P  9.631361 -10.659245  4.199069
In 20.372994  7.273067  2.376756
P 20.482295  9.831823  2.202092
In  8.451663 -9.763976  2.110290
P  8.556809 -7.193297  1.992468
In 12.050441 -9.809546  4.085584
P 12.167976 -7.250924  3.902935
In  7.369168 -6.308573  4.081885
P  7.456054 -3.722224  4.033692
In 10.986802 -6.370991  1.805032
P 11.100790 -3.814624  1.585959
In  2.515855 -2.969239  4.112325
P  2.419238 -0.417633  0.007973
In 13.346094 17.459507  2.022096
P 27.772626 -0.436590  2.161318
In  1.222845  0.429126  2.095431
P 15.538710 -17.463200  2.203177
In  4.767745  0.487914  0.029189
P  4.683157  3.030661  0.098654
In 14.315738 -16.625356  4.298799
P 14.355615 -14.074024  4.218114
In  3.468824  3.867143  2.181793
P 17.978783 -14.029676  2.113769
In 16.762827 -13.199068  4.190207
P 16.847457 -10.651948  4.058355
In 13.129256 -13.247796  2.128711
P 13.236393 -10.682898  2.006716
In 15.647831 -9.808661  1.959061
P 15.766794 -7.257731  1.766971
In 19.250949 -9.775109  4.070227
P 19.353616 -7.239517  3.873581
In 14.586158 -6.393292  3.835629
P 14.717613 -3.842997  3.604056
In 18.173651 -6.378856  1.764811
P 18.302478 -3.835200  1.540309
%ENDBLOCK POSITIONS_ABS

KPOINT_MP_GRID: 2 2 8
KPOINT_MP_OFFSET: 0.25 0.25 0.0625
