# written by ASE

%BLOCK LATTICE_CART
11.802550  0.000000  0.000000
 0.000000 11.802550  0.000000
 0.000000  0.000000 11.802550
%ENDBLOCK LATTICE_CART

%BLOCK POSITIONS_ABS
P  1.476399  1.474238  4.452065
P  4.524597  1.520683  1.540546
P  1.476399  4.432201  1.494102
P  4.453455  4.417226  4.437089
P  1.429955  1.520683 10.248454
P  4.478153  1.474238  7.336936
P  1.501097  4.417226  7.351911
P  4.478153  4.432201 10.294898
P  1.501097  7.332048  4.437089
P  4.478153  7.317072  1.494102
P  1.429955 10.228591  1.540546
P  4.478153 10.275035  4.452065
P  1.476399  7.317072 10.294898
P  4.453455  7.332048  7.351911
P  1.476399 10.275035  7.336936
P  4.524597 10.228591 10.248454
P  7.421140  1.449541  4.437089
P 10.320986  1.474238  1.494102
P  7.421140  4.417226  1.469404
P 10.350714  4.402473  4.422337
P  7.436116  1.474238 10.294898
P 10.335962  1.449541  7.351911
P  7.406387  4.402473  7.366664
P 10.335962  4.417226 10.319596
P  7.406387  7.346800  4.422337
P 10.335962  7.332048  1.469404
P  7.436116 10.275035  1.494102
P 10.335962 10.299733  4.437089
P  7.421140  7.332048 10.319596
P 10.350714  7.346800  7.366664
P  7.421140 10.299733  7.351911
P 10.320986 10.275035 10.294898
In -0.112480 -0.026638 -0.006775
In  2.977276 -0.026638  3.082981
In  0.018896  2.931741  2.951605
In  2.977276  3.063118 -0.006775
In  0.003062 -0.026638  5.894500
In  2.977276 -0.026638  8.706019
In -0.044870  2.995508  8.773629
In  2.977276  2.947576  5.894500
In  0.003062  5.874637 -0.006775
In  2.977276  5.874637  2.967439
In -0.044870  8.753766  3.015371
In  2.977276  8.686156 -0.006775
In  0.015981  5.874637  5.894500
In  2.977276  5.874637  8.821561
In  0.018896  8.817532  8.837396
In  2.977276  8.801698  5.894500
In  6.067032 -0.026638 -0.006775
In  8.878551 -0.026638  2.967439
In  5.999422  2.995508  3.015371
In  8.878551  2.947576 -0.006775
In  5.951490 -0.026638  5.894500
In  8.878551 -0.026638  8.821561
In  5.935656  2.931741  8.837396
In  8.878551  2.934656  5.894500
In  5.951490  5.874637 -0.006775
In  8.878551  5.874637  2.954520
In  5.935656  8.817532  2.951605
In  8.878551  8.801698 -0.006775
In  5.938571  5.874637  5.894500
In  8.878551  5.874637  8.834481
In  5.999422  8.753766  8.773629
In  8.878551  8.814617  5.894500
In  2.977276 -0.026638 -0.006775
%ENDBLOCK POSITIONS_ABS

KPOINT_MP_GRID: 4 4 4
KPOINT_MP_OFFSET: 0.125 0.125 0.125
