# written by ASE

%BLOCK LATTICE_CART
11.802550  0.000000  0.000000
 0.000000 11.802550  0.000000
 0.000000  0.000000 11.802550
%ENDBLOCK LATTICE_CART

%BLOCK POSITIONS_ABS
P  1.476501  1.474136  4.451889
P  4.524600  1.520686  1.540550
P  1.476501  4.432025  1.494000
P  4.453376  4.417272  4.437136
P  1.429951  1.520686 10.248451
P  4.478051  1.474136  7.337112
P  1.501176  4.417272  7.351865
P  4.478051  4.432025 10.295001
P  1.501176  7.332001  4.437136
P  4.478051  7.317248  1.494000
P  1.429951 10.228587  1.540550
P  4.478051 10.275137  4.451889
P  1.476501  7.317248 10.295001
P  4.453376  7.332001  7.351865
P  1.476501 10.275137  7.337112
P  4.524600 10.228587 10.248451
P  7.421187  1.449461  4.437136
P 10.321162  1.474136  1.494000
P  7.421187  4.417272  1.469325
P 10.350713  4.402475  4.422338
P  7.435939  1.474136 10.295001
P 10.335915  1.449461  7.351865
P  7.406389  4.402475  7.366662
P 10.335915  4.417272 10.319676
P  7.406389  7.346799  4.422338
P 10.335915  7.332001  1.469325
P  7.435939 10.275137  1.494000
P 10.335915 10.299812  4.437136
P  7.421187  7.332001 10.319676
P 10.350713  7.346799  7.366662
P  7.421187 10.299812  7.351865
P 10.321162 10.275137 10.295001
In -0.112252 -0.026638 -0.006775
In  2.977276 -0.026638  3.082753
In  0.018922  2.931715  2.951579
In  2.977276  3.062890 -0.006775
In  0.003295 -0.026638  5.894500
In  2.977276 -0.026638  8.706247
In -0.044923  2.995560  8.773577
In  2.977276  2.947342  5.894500
In  0.003295  5.874637 -0.006775
In  2.977276  5.874637  2.967206
In -0.044923  8.753713  3.015424
In  2.977276  8.686384 -0.006775
In  0.016064  5.874637  5.894500
In  2.977276  5.874637  8.821795
In  0.018922  8.817558  8.837422
In  2.977276  8.801931  5.894500
In  6.066804 -0.026638 -0.006775
In  8.878551 -0.026638  2.967206
In  5.999475  2.995560  3.015424
In  8.878551  2.947342 -0.006775
In  5.951257 -0.026638  5.894500
In  8.878551 -0.026638  8.821795
In  5.935629  2.931715  8.837422
In  8.878551  2.934573  5.894500
In  5.951257  5.874637 -0.006775
In  8.878551  5.874637  2.954437
In  5.935629  8.817558  2.951579
In  8.878551  8.801931 -0.006775
In  5.938487  5.874637  5.894500
In  8.878551  5.874637  8.834564
In  5.999475  8.753713  8.773577
In  8.878551  8.814700  5.894500
In  2.977276 -0.026638 -0.006775
%ENDBLOCK POSITIONS_ABS

KPOINT_MP_GRID: 4 4 4
KPOINT_MP_OFFSET: 0.125 0.125 0.125
