#######################################################
#CASTEP cell file: /home/eng/phrbqc/GitHub/InPDislocs/Devel/Data_Devel/EOS/CASTEP_Files/WZ_EOS_1.1523/WZ_EOS_1.1523.cell
#Created using the Atomic Simulation Environment (ASE)#
#######################################################

%BLOCK LATTICE_CART
 4.798768 -0.000050  0.000000
 2.399341  4.155880 -0.000000
 0.000000 -0.000000  7.880615
%ENDBLOCK LATTICE_CART

%BLOCK POSITIONS_ABS
P  2.399344  1.385267 -0.000102
P  4.798762  2.770571  3.940205
In  2.399358  1.385275  2.950841
In  4.798747  2.770562  6.891149
%ENDBLOCK POSITIONS_ABS

KPOINT_MP_GRID: 9 9 5
KPOINT_MP_OFFSET: 0.055556 0.055556 0.1
