#######################################################
#CASTEP cell file: /home/eng/phrbqc/GitHub/InPDislocs/Devel/Data_Devel/EOS/CASTEP_Files/WZ_EOS_0.9551/WZ_EOS_0.9551.cell
#Created using the Atomic Simulation Environment (ASE)#
#######################################################

%BLOCK LATTICE_CART
 3.977428 -0.000041  0.000000
 1.988678  3.444574 -0.000000
 0.000000 -0.000000  6.531796
%ENDBLOCK LATTICE_CART

%BLOCK POSITIONS_ABS
P  1.988680  1.148169 -0.000085
P  3.977422  2.296370  3.265813
In  1.988692  1.148176  2.445785
In  3.977410  2.296363  5.711683
%ENDBLOCK POSITIONS_ABS

KPOINT_MP_GRID: 11 11 7
KPOINT_MP_OFFSET: 0.045455 0.045455 0.071429
