# written by ASE

%BLOCK LATTICE_CART
11.802550  0.000000  0.000000
 0.000000 11.802550  0.000000
 0.000000  0.000000 11.802550
%ENDBLOCK LATTICE_CART

%BLOCK POSITIONS_ABS
P  1.520155  1.430482  4.480613
P  4.569592  1.538634  1.548905
P  1.520155  4.470342  1.440753
P  4.430616  4.460063  4.470333
P  1.412004  1.538634 10.193866
P  4.450962  1.457066  7.355064
P  1.484149  4.431386  7.362538
P  4.583263  4.527027 10.180196
P  1.484149  7.352267  4.441657
P  4.450962  7.344793  1.467337
P  1.412004 10.183596  1.548905
P  4.583263 10.169925  4.537297
P  1.493571  7.344793 10.312497
P  4.461807  7.390024  7.400295
P  1.493571 10.302226  7.355064
P  4.366388 10.386800 10.397071
P  7.400920  1.466489  4.441657
P 10.282846  1.430482  1.440753
P  7.400920  4.431386  1.476759
P 10.423550  4.329637  4.339908
P  7.408395  1.457066 10.312497
P 10.321801  1.466489  7.362538
P  7.428216  4.409727  7.335242
P 10.293125  4.460063 10.332842
P  7.428216  7.324971  4.419998
P 10.321801  7.352267  1.476759
P  7.408395 10.302226  1.467337
P 10.293125 10.322571  4.470333
P  7.363163  7.390024 10.301651
P 10.343460  7.324971  7.335242
P  7.363163 10.291380  7.400295
P 10.226161 10.169925 10.180196
In -0.292946 -0.148844 -0.138573
In  3.099481 -0.148844  3.253855
In  0.127610  2.823028  2.833299
In  3.099481  3.243584 -0.138573
In -0.001285 -0.016670  5.920529
In  2.930421  0.020216  8.820686
In -0.081702  3.032340  8.791131
In  2.967307  2.951923  5.920529
In -0.001285  5.910258 -0.006399
In  2.967307  5.910258  2.962194
In -0.081702  8.780860  3.042611
In  2.930421  8.810415  0.030487
In -0.000396  5.843928  5.854199
In  2.959152  5.922658  8.798465
In  0.042224  8.776841  8.787112
In  2.959152  8.788195  5.932929
In  5.942773  0.020216  0.030487
In  8.842929 -0.016670  2.962194
In  5.972328  3.032340  3.042611
In  8.842929  2.951923 -0.006399
In  5.964993 -0.008515  5.932929
In  8.830529 -0.008515  8.798465
In  5.976346  2.908413  8.787112
In  8.909259  2.951033  5.854199
In  5.964993  5.922658  0.001756
In  8.909259  5.843928  2.961304
In  5.976346  8.776841  2.918684
In  8.830529  8.788195  0.001756
In  5.930710  5.915716  5.925987
In  8.837472  5.915716  8.832749
In  5.851059  8.902128  8.912399
In  8.837472  8.822478  5.925987
In  2.137814  0.812823  0.823094
%ENDBLOCK POSITIONS_ABS

KPOINT_MP_GRID: 4 4 4
KPOINT_MP_OFFSET: 0.125 0.125 0.125
