# written by ASE

%BLOCK LATTICE_CART
11.802550  0.000000  0.000000
 0.000000 11.802550  0.000000
 0.000000  0.000000 11.802550
%ENDBLOCK LATTICE_CART

%BLOCK POSITIONS_ABS
P  1.518795  1.431842  4.483675
P  4.577532  1.539029  1.549300
P  1.518795  4.473404  1.442113
P  4.430430  4.459843  4.470113
P  1.411609  1.539029 10.185926
P  4.451806  1.457908  7.356189
P  1.484051  4.431459  7.361852
P  4.581650  4.525710 10.181809
P  1.484051  7.351581  4.441729
P  4.451806  7.345918  1.468179
P  1.411609 10.175656  1.549300
P  4.581650 10.171538  4.535981
P  1.492729  7.345918 10.311652
P  4.461029  7.390253  7.400524
P  1.492729 10.301381  7.356189
P  4.365039 10.388149 10.398420
P  7.401606  1.466586  4.441729
P 10.279783  1.431842  1.442113
P  7.401606  4.431459  1.476857
P 10.424622  4.328566  4.338836
P  7.407269  1.457908 10.311652
P 10.321729  1.466586  7.361852
P  7.429117  4.409977  7.334342
P 10.293345  4.459843 10.333028
P  7.429117  7.324071  4.420248
P 10.321729  7.351581  1.476857
P  7.407269 10.301381  1.468179
P 10.293345 10.322758  4.470113
P  7.362934  7.390253 10.302429
P 10.343210  7.324071  7.334342
P  7.362934 10.292159  7.400524
P 10.227477 10.171538 10.181809
In -0.290416 -0.145891 -0.135620
In  3.096529 -0.145891  3.251324
In  0.127909  2.822729  2.833000
In  3.096529  3.241053 -0.135620
In -0.001039 -0.017544  5.920699
In  2.931885  0.018753  8.818534
In -0.083020  3.033658  8.789804
In  2.968182  2.951676  5.920699
In -0.001039  5.910428 -0.007273
In  2.968182  5.910428  2.961947
In -0.083020  8.779533  3.043929
In  2.931885  8.808263  0.029023
In -0.000222  5.842866  5.853137
In  2.958360  5.922105  8.799226
In  0.040010  8.776544  8.786815
In  2.958360  8.788955  5.932376
In  5.944924  0.018753  0.029023
In  8.842760 -0.017544  2.961947
In  5.973654  3.033658  3.043929
In  8.842760  2.951676 -0.007273
In  5.964232 -0.007722  5.932376
In  8.831082 -0.007722  8.799226
In  5.976644  2.910628  8.786815
In  8.910321  2.950860  5.853137
In  5.964232  5.922105  0.002549
In  8.910321  5.842866  2.961131
In  5.976644  8.776544  2.920899
In  8.831082  8.788955  0.002549
In  5.930369  5.916099  5.926369
In  8.837089  5.916099  8.833089
In  5.850584  8.902604  8.912875
In  8.837089  8.822818  5.926369
In  2.139588  0.811050  0.821321
%ENDBLOCK POSITIONS_ABS

KPOINT_MP_GRID: 4 4 4
KPOINT_MP_OFFSET: 0.125 0.125 0.125
