#######################################################
#CASTEP cell file: /home/eng/phrbqc/GitHub/InPDislocs/Devel/Data_Devel/EOS/CASTEP_Files/WZ_EOS_0.7312/WZ_EOS_0.7312.cell
#Created using the Atomic Simulation Environment (ASE)#
#######################################################

%BLOCK LATTICE_CART
 3.045095 -0.000032  0.000000
 1.522520  2.637145 -0.000000
 0.000000 -0.000000  5.000704
%ENDBLOCK LATTICE_CART

%BLOCK POSITIONS_ABS
P  1.522522  0.879032 -0.000065
P  3.045091  1.758087  2.500287
In  1.522531  0.879037  1.872479
In  3.045082  1.758082  4.372831
%ENDBLOCK POSITIONS_ABS

KPOINT_MP_GRID: 13 13 7
KPOINT_MP_OFFSET: 0.038462 0.038462 0.071429
