#######################################################
#CASTEP cell file: /home/eng/phrbqc/GitHub/InPDislocs/Devel/Data_Devel/EOS/CASTEP_Files/WZ_EOS_1.0617/WZ_EOS_1.0617.cell
#Created using the Atomic Simulation Environment (ASE)#
#######################################################

%BLOCK LATTICE_CART
 4.421396 -0.000046  0.000000
 2.210658  3.829063 -0.000000
 0.000000 -0.000000  7.260887
%ENDBLOCK LATTICE_CART

%BLOCK POSITIONS_ABS
P  2.210660  1.276330 -0.000094
P  4.421389  2.552695  3.630349
In  2.210674  1.276338  2.718788
In  4.421376  2.552687  6.349232
%ENDBLOCK POSITIONS_ABS

KPOINT_MP_GRID: 9 9 5
KPOINT_MP_OFFSET: 0.055556 0.055556 0.1
