# written by ASE

%BLOCK LATTICE_CART
 5.906742 -0.000004 -0.000004
-0.000004  5.900841  0.002947
-0.000004  0.002947  5.900841
%ENDBLOCK LATTICE_CART

%BLOCK POSITIONS_ABS
P  1.476682  1.477419  4.426366
P  4.430054  1.475944  1.475944
P  1.476682  4.426366  1.477419
P  4.430051  4.427838  4.427838
In  0.000000  0.000000  0.000000
In  2.953369  0.001471  2.950418
In -0.000004  2.951894  2.951894
In  2.953369  2.950419  0.001471
%ENDBLOCK POSITIONS_ABS

FIX_ALL_CELL: TRUE
KPOINT_MP_GRID: 6 6 6
KPOINT_MP_OFFSET: 0.08333333333333333 0.08333333333333333 0.08333333333333333
