#######################################################
#CASTEP cell file: /home/eng/phrbqc/GitHub/InPDislocs/Devel/Data_Devel/EOS/CASTEP_Files/ZB_EOS_0.7684/ZB_EOS_0.7684.cell
#Created using the Atomic Simulation Environment (ASE)#
#######################################################

%BLOCK LATTICE_CART
 4.534691  0.000000 -0.000000
 0.000000  4.534691 -0.000000
-0.000000 -0.000000  4.534691
%ENDBLOCK LATTICE_CART

%BLOCK POSITIONS_ABS
P  1.133673  1.133673  3.401018
P  3.401018  1.133673  1.133673
P  1.133673  3.401018  1.133673
P  3.401018  3.401018  3.401018
In  0.000000  0.000000  0.000000
In  2.267345  0.000000  2.267345
In  0.000000  2.267345  2.267345
In  2.267345  2.267345  0.000000
%ENDBLOCK POSITIONS_ABS

KPOINT_MP_GRID: 9 9 9
KPOINT_MP_OFFSET: 0.055556 0.055556 0.055556
