# written by ASE

%BLOCK LATTICE_CART
11.801682 -0.000008 -0.000008
-0.000008 11.801682 -0.000008
-0.000008 -0.000008 11.801682
%ENDBLOCK LATTICE_CART

%BLOCK POSITIONS_ABS
P  1.333732  1.460304  4.527215
P  4.357971  1.583020  2.555232
P  1.485112  4.384472  1.435230
P  4.441007  4.494074  4.466371
P  1.373367  1.452906 10.158066
P  4.412449  1.461733  7.323953
P  1.466327  4.414587  7.332934
P  4.443805  4.438388 10.263657
P  1.450847  7.333488  4.372299
P  4.409554  7.380394  1.441197
P  1.440020 10.292242  1.468160
P  4.417066 10.193537  4.514705
P  1.459878  7.369496 10.329192
P  4.388455  7.316547  7.382966
P  1.422451 10.273223  7.341351
P  4.408745 10.227828 10.161002
P  7.458684  1.474109  4.469546
P 10.334601  1.458599  1.440976
P  7.433395  4.479030  1.398150
P 10.329461  4.412119  4.395266
P  7.397823  1.497975 10.258707
P 10.263385  1.442519  7.384783
P  7.381531  4.433641  7.346320
P 10.326474  4.424776 10.293928
P  7.363365  7.376899  4.396165
P 10.302920  7.352702  1.439037
P  7.339624 10.336033  1.440542
P 10.288317 10.295094  4.374939
P  7.372408  7.374757 10.295336
P 10.312405  7.361567  7.347465
P  7.363458 10.316782  7.334435
P 10.317354 10.308943 10.327598
In  0.020852  0.003161 -0.039431
In  2.728094 -0.221481  3.247461
In  0.002424  2.924167  2.924352
In  2.821605  3.006760 -0.240313
In -0.118391 -0.057774  5.937028
In  2.919273 -0.034654  8.768094
In -0.065500  2.961732  8.754401
In  2.951861  2.938515  5.844760
In -0.004076  5.881908 -0.007125
In  2.963677  5.870950  2.911967
In -0.038013  8.808606  2.909122
In  2.957545  8.874851 -0.037205
In -0.009485  5.887141  5.873043
In  2.901392  5.881015  8.844713
In -0.027920  8.821840  8.849503
In  2.894735  8.741963  5.928155
In  5.983357 -0.134312 -0.250145
In  8.835634  0.005695  2.910358
In  6.152674  3.173314  3.113810
In  8.881105  2.929090 -0.037115
In  5.887519  0.000829  5.846120
In  8.833242 -0.049337  8.842147
In  5.894177  2.944331  8.784130
In  8.892591  2.958619  5.916640
In  5.878287  5.924539 -0.037054
In  8.867584  5.915551  2.949052
In  5.877032  8.846697  2.921376
In  8.832523  8.844587 -0.008582
In  5.902818  5.943220  5.916121
In  8.843424  5.893929  8.834997
In  5.909237  8.784261  8.754631
In  8.835860  8.840602  5.874457
P  3.896144  0.914916  0.630651
%ENDBLOCK POSITIONS_ABS

KPOINT_MP_GRID: 4 4 4
KPOINT_MP_OFFSET: 0.125 0.125 0.125
