# written by ASE

%BLOCK LATTICE_CART
11.801682 -0.000008 -0.000008
-0.000008 11.801682 -0.000008
-0.000008 -0.000008 11.801682
%ENDBLOCK LATTICE_CART

%BLOCK POSITIONS_ABS
P  1.334118  1.459590  4.526546
P  4.363265  1.580443  2.559873
P  1.484496  4.386261  1.433692
P  4.440018  4.493601  4.465230
P  1.373249  1.453243 10.158624
P  4.411938  1.461273  7.324743
P  1.466155  4.414737  7.333227
P  4.444250  4.438204 10.264292
P  1.450162  7.333259  4.372704
P  4.409636  7.380916  1.441978
P  1.438632 10.290563  1.467157
P  4.415997 10.193737  4.513869
P  1.459903  7.370457 10.328701
P  4.388210  7.316405  7.383268
P  1.422517 10.273206  7.341467
P  4.409662 10.228653 10.162435
P  7.457901  1.473353  4.468393
P 10.334927  1.458920  1.441966
P  7.436297  4.481616  1.396953
P 10.330065  4.411367  4.395176
P  7.397328  1.498612 10.259939
P 10.262771  1.442114  7.385132
P  7.381329  4.433438  7.344929
P 10.326140  4.424449 10.293068
P  7.362392  7.377597  4.396139
P 10.303159  7.352741  1.438930
P  7.341962 10.334845  1.439089
P 10.288130 10.294719  4.375408
P  7.371650  7.373916 10.294579
P 10.311821  7.361117  7.347360
P  7.363316 10.316713  7.334627
P 10.318354 10.308987 10.327007
In  0.020844  0.004023 -0.038736
In  2.727817 -0.221473  3.243868
In  0.004473  2.924369  2.923694
In  2.822156  3.006175 -0.240390
In -0.118815 -0.057853  5.936984
In  2.918806 -0.035383  8.769557
In -0.065639  2.961305  8.754241
In  2.951239  2.938014  5.845255
In -0.005216  5.882937 -0.008945
In  2.962717  5.872227  2.911748
In -0.038685  8.808125  2.909672
In  2.958433  8.874945 -0.037178
In -0.009867  5.886574  5.873111
In  2.901373  5.880946  8.845601
In -0.028112  8.821618  8.848699
In  2.894485  8.741365  5.928033
In  5.982270 -0.132120 -0.247451
In  8.836374  0.004833  2.910255
In  6.155201  3.175919  3.111485
In  8.881973  2.928886 -0.036851
In  5.886496  0.000272  5.846159
In  8.832531 -0.049403  8.843356
In  5.894519  2.944641  8.783366
In  8.892384  2.957556  5.915593
In  5.877720  5.924582 -0.036209
In  8.868695  5.916926  2.950479
In  5.877203  8.848926  2.920573
In  8.833618  8.843042 -0.010818
In  5.901697  5.942913  5.915049
In  8.842589  5.893192  8.834698
In  5.908708  8.784647  8.755029
In  8.835190  8.840415  5.874478
P  3.894344  0.914823  0.635936
%ENDBLOCK POSITIONS_ABS

KPOINT_MP_GRID: 4 4 4
KPOINT_MP_OFFSET: 0.125 0.125 0.125
