#######################################################
#CASTEP cell file: /home/eng/phrbqc/GitHub/InPDislocs/Devel/Data_Devel/EOS/CASTEP_Files/ZB_EOS_0.9976/ZB_EOS_0.9976.cell
#Created using the Atomic Simulation Environment (ASE)#
#######################################################

%BLOCK LATTICE_CART
 5.887143  0.000000 -0.000000
 0.000000  5.887143 -0.000000
-0.000000 -0.000000  5.887143
%ENDBLOCK LATTICE_CART

%BLOCK POSITIONS_ABS
P  1.471786  1.471786  4.415358
P  4.415358  1.471786  1.471786
P  1.471786  4.415358  1.471786
P  4.415358  4.415358  4.415358
In  0.000000  0.000000  0.000000
In  2.943572  0.000000  2.943572
In  0.000000  2.943572  2.943572
In  2.943572  2.943572  0.000000
%ENDBLOCK POSITIONS_ABS

KPOINT_MP_GRID: 7 7 7
KPOINT_MP_OFFSET: 0.071429 0.071429 0.071429
