#######################################################
#CASTEP cell file: /home/eng/phrbqc/GitHub/InPDislocs/Devel/Data_Devel/EOS/CASTEP_Files/WZ_EOS_1.1309/WZ_EOS_1.1309.cell
#Created using the Atomic Simulation Environment (ASE)#
#######################################################

%BLOCK LATTICE_CART
 4.709975 -0.000049  0.000000
 2.354945  4.078982 -0.000000
 0.000000 -0.000000  7.734797
%ENDBLOCK LATTICE_CART

%BLOCK POSITIONS_ABS
P  2.354948  1.359635 -0.000101
P  4.709968  2.719306  3.867298
In  2.354962  1.359643  2.896240
In  4.709954  2.719298  6.763639
%ENDBLOCK POSITIONS_ABS

KPOINT_MP_GRID: 9 9 5
KPOINT_MP_OFFSET: 0.055556 0.055556 0.1
