#######################################################
#CASTEP cell file: /home/eng/phrbqc/GitHub/InPDislocs/Devel/Data_Devel/EOS/CASTEP_Files/ZB_EOS_0.8963/ZB_EOS_0.8963.cell
#Created using the Atomic Simulation Environment (ASE)#
#######################################################

%BLOCK LATTICE_CART
 5.289548  0.000000 -0.000000
 0.000000  5.289548 -0.000000
-0.000000 -0.000000  5.289548
%ENDBLOCK LATTICE_CART

%BLOCK POSITIONS_ABS
P  1.322387  1.322387  3.967161
P  3.967161  1.322387  1.322387
P  1.322387  3.967161  1.322387
P  3.967161  3.967161  3.967161
In  0.000000  0.000000  0.000000
In  2.644774  0.000000  2.644774
In  0.000000  2.644774  2.644774
In  2.644774  2.644774  0.000000
%ENDBLOCK POSITIONS_ABS

KPOINT_MP_GRID: 7 7 7
KPOINT_MP_OFFSET: 0.071429 0.071429 0.071429
