# written by ASE

%BLOCK LATTICE_CART
11.801682 -0.000008 -0.000008
-0.000008 11.801682 -0.000008
-0.000008 -0.000008 11.801682
%ENDBLOCK LATTICE_CART

%BLOCK POSITIONS_ABS
P  1.275283  1.732229  4.645408
P  4.645398  1.732236  1.275306
P  1.468965  4.379512  1.468965
In  0.071356 -0.087917  0.071356
In  3.416949  1.923816  3.416915
In -0.138317  3.019168  2.937446
In  2.937448  3.019167 -0.138317
P  1.465841  1.440712 10.322153
P  4.466436  1.426805  7.445049
P  1.437348  4.568626  7.501257
P  4.431048  4.524729 10.258107
In -0.001523 -0.116965  5.903601
In  2.960532 -0.059078  8.897564
In -0.003939  2.937113  8.865439
In  2.934500  3.028653  6.198681
P  1.589759  7.290051  4.389066
P  4.389067  7.290051  1.589759
P  1.658405 10.512467  1.658406
P  4.257121 10.615328  4.257121
In -0.008330  5.889923 -0.008330
In  3.112704  5.565382  3.112704
In  0.184102  8.852667  2.887950
In  2.887951  8.852667  0.184101
P  1.453139  7.437104 10.393597
P  4.441902  7.431538  7.272920
P  1.508954 10.280065  7.374475
P  4.394817 10.219374 10.375088
In  0.015816  5.953627  5.883101
In  2.969245  6.088693  8.863933
In -0.019757  8.858997  8.859839
In  2.997845  8.953210  5.756813
P  7.445049  1.426805  4.466436
P 10.322153  1.440712  1.465842
P  7.501259  4.568629  1.437347
P 10.258108  4.524728  4.431048
In  5.903602 -0.116967 -0.001524
In  8.897564 -0.059078  2.960531
In  6.198673  3.028648  2.934499
In  8.865439  2.937114 -0.003939
P  7.352243  1.462794 10.373332
P 10.373334  1.462794  7.352241
P  7.330042  4.404956  7.330042
P 10.310156  4.414877 10.310156
In  5.865262 -0.081514  5.865262
In  8.858230  0.075395  8.858231
In  5.917376  2.951509  8.885497
In  8.885496  2.951510  5.917376
P  7.272920  7.431538  4.441902
P 10.393598  7.437104  1.453139
P  7.374476 10.280064  1.508954
P 10.375088 10.219374  4.394816
In  5.883101  5.953627  0.015816
In  8.863932  6.088694  2.969244
In  5.756814  8.953210  2.997845
In  8.859839  8.858997 -0.019757
P  7.383913  7.373759 10.313663
P 10.313663  7.373759  7.383913
P  7.393595 10.355686  7.393594
P 10.325154 10.361595 10.325153
In  5.760236  5.785431  5.760236
In  8.819038  5.874690  8.819038
In  5.921354  8.843010  8.828721
In  8.828721  8.843010  5.921354
%ENDBLOCK POSITIONS_ABS

KPOINT_MP_GRID: 4 4 4
KPOINT_MP_OFFSET: 0.125 0.125 0.125
