# written by ASE

%BLOCK LATTICE_CART
11.801682 -0.000008 -0.000008
-0.000008 11.801682 -0.000008
-0.000008 -0.000008 11.801682
%ENDBLOCK LATTICE_CART

%BLOCK POSITIONS_ABS
P  1.272488  1.732366  4.644495
P  4.644488  1.732371  1.272505
P  1.462998  4.385035  1.462998
In  0.074648 -0.087689  0.074647
In  3.416030  1.933654  3.416006
In -0.137843  3.025370  2.938674
In  2.938675  3.025369 -0.137843
P  1.467224  1.441520 10.325062
P  4.469470  1.422158  7.449452
P  1.437149  4.564658  7.499988
P  4.432455  4.527318 10.254462
In -0.003451 -0.117287  5.903975
In  2.959038 -0.060427  8.899645
In -0.003950  2.935060  8.867643
In  2.932576  3.018349  6.205439
P  1.589848  7.290696  4.390571
P  4.390571  7.290697  1.589848
P  1.658679 10.506507  1.658679
P  4.258019 10.619265  4.258019
In -0.013148  5.893368 -0.013149
In  3.107385  5.564111  3.107385
In  0.182887  8.850323  2.889722
In  2.889723  8.850323  0.182887
P  1.453880  7.436866 10.391155
P  4.441695  7.434932  7.271763
P  1.507711 10.280390  7.374888
P  4.395136 10.217903 10.374212
In  0.015499  5.953415  5.883650
In  2.968825  6.088606  8.859278
In -0.019787  8.860033  8.860289
In  2.998164  8.957295  5.755102
P  7.449453  1.422158  4.469470
P 10.325062  1.441520  1.467224
P  7.499990  4.564660  1.437148
P 10.254463  4.527317  4.432455
In  5.903975 -0.117288 -0.003452
In  8.899645 -0.060427  2.959038
In  6.205433  3.018346  2.932575
In  8.867643  2.935060 -0.003950
P  7.353326  1.462694 10.373135
P 10.373136  1.462694  7.353324
P  7.329323  4.407149  7.329323
P 10.308594  4.413896 10.308594
In  5.868007 -0.084124  5.868007
In  8.859086  0.074200  8.859086
In  5.919338  2.952075  8.885278
In  8.885278  2.952076  5.919338
P  7.271763  7.434932  4.441695
P 10.391155  7.436866  1.453880
P  7.374888 10.280389  1.507710
P 10.374213 10.217904  4.395136
In  5.883650  5.953415  0.015499
In  8.859278  6.088606  2.968824
In  5.755102  8.957294  2.998163
In  8.860289  8.860034 -0.019787
P  7.384865  7.374098 10.314552
P 10.314552  7.374098  7.384865
P  7.395609 10.353634  7.395609
P 10.327168 10.362708 10.327168
In  5.758201  5.788170  5.758201
In  8.818612  5.875607  8.818612
In  5.921895  8.842048  8.829421
In  8.829421  8.842048  5.921895
%ENDBLOCK POSITIONS_ABS

KPOINT_MP_GRID: 4 4 4
KPOINT_MP_OFFSET: 0.125 0.125 0.125
