#######################################################
#CASTEP cell file: /home/eng/phrbqc/GitHub/InPDislocs/Devel/Data_Devel/EOS/CASTEP_Files/WZ_EOS_0.8538/WZ_EOS_0.8538.cell
#Created using the Atomic Simulation Environment (ASE)#
#######################################################

%BLOCK LATTICE_CART
 3.555658 -0.000037  0.000000
 1.777797  3.079308 -0.000000
 0.000000 -0.000000  5.839159
%ENDBLOCK LATTICE_CART

%BLOCK POSITIONS_ABS
P  1.777799  1.026417 -0.000076
P  3.555653  2.052861  2.919504
In  1.777810  1.026423  2.186432
In  3.555643  2.052854  5.106012
%ENDBLOCK POSITIONS_ABS

KPOINT_MP_GRID: 11 11 7
KPOINT_MP_OFFSET: 0.045455 0.045455 0.071429
