# written by ASE

%BLOCK LATTICE_CART
14.454049 20.441112  0.000000
14.454049 -20.441112  0.000000
-0.000000  0.000000  4.172525
%ENDBLOCK LATTICE_CART

%BLOCK POSITIONS_ABS
In  9.163142 -3.148734  0.169739
P  8.418801 -0.693451  0.603816
In  5.762790 -3.155848  1.835570
P  6.310846 -0.666276  1.443728
In  9.557378  0.360289  2.588054
P  8.960979  2.853272  2.235797
In 13.249887  0.413553  0.236777
P 12.615964  2.929883  0.132453
In  7.653490  3.651904  0.110614
P  7.441326  6.252487  0.070275
In 11.356551  3.782984  2.208150
P 11.074152  6.343517  2.150258
In  9.818483  7.186823  0.061651
P  9.642391  9.774538  0.044024
In  6.229616  7.166538  2.146275
P 20.511935 -10.687931  2.134460
In  8.435135 10.675172  2.130755
P 22.708905 -7.180566  2.127604
In 12.022891 10.678452  0.019056
P 11.866894 13.257781  0.002809
In 21.458699 -6.328969  0.044838
P 21.260676 -3.756183  0.049490
In 10.651443 14.147363  2.091833
P 24.995162 -3.690023  2.081039
In 16.318291 -2.964431  0.106773
P 15.751502 -0.439362  0.134908
In 12.720117 -2.969928  2.211494
P 12.072390 -0.470626  2.342041
In 16.892509  0.451651  2.212586
P 16.212476  2.955948  2.178029
In 20.499792  0.490128  0.065750
P 19.765206  2.988974  0.038729
In 14.990027  3.836172  0.091592
P 14.690370  6.383164  0.039583
In 18.561434  3.882108  2.126014
P 18.301811  6.420602  2.089220
In 17.063056  7.254767  0.003277
P 16.844835  9.792200 -0.017307
In 13.452333  7.240598  2.124919
P 13.244478  9.802390  2.104335
In 15.633444 10.657183  2.069450
P 15.486288 13.207369  2.042296
In 19.219406 10.655173 -0.045224
P 19.054135 13.174261 -0.078197
In 14.283443 14.069718 -0.043434
P 14.229283 16.633919 -0.080858
In 17.880347 14.049411  2.007128
P  3.347259 -3.851189  1.968127
In 23.679087 -2.948265  0.001813
P 23.132559 -0.353355  0.018631
In 19.959786 -2.942175  2.142692
P 19.398896 -0.415245  2.156298
In 23.570391  0.928685  2.103541
P 23.246468  3.364692  2.072064
In 26.564280  0.531277 -0.158374
P 12.323589 -17.370225 -0.080163
In 22.001381  4.105774 -0.011230
P 21.878423  6.602489 -0.032245
In 25.690152  4.035186  2.011529
P 11.072198 -13.905022  2.015102
In  9.852199 -13.113205 -0.070139
P  9.669844 -10.602543 -0.069861
In 20.641899  7.367763  2.055629
P 20.459073  9.876588  2.040450
In  8.433398 -9.832226  2.013153
P  8.249769 -7.322053  1.978648
In 12.070297 -9.784596 -0.015230
P 11.848759 -7.258966  0.035057
In  7.021711 -6.558990 -0.120116
P  6.864516 -4.062509 -0.227092
In 10.620116 -6.455290  2.124464
P 10.392850 -3.933649  2.244373
In 16.649465 17.478147 -0.116714
P  2.534648 -0.432479 -0.233400
In 13.023970 17.489142  2.007192
P 27.706489 -0.398565  1.924711
In  1.302993  0.411019  1.871901
P 15.943997 -17.477226  1.974968
In  5.022423  0.341209 -0.501881
P  5.181825  2.887055 -0.149051
In 14.771726 -16.591694 -0.102337
P 14.649197 -14.039762 -0.060236
In  3.941268  3.771010  1.946869
P 18.266171 -14.101618  2.038423
In 17.060685 -13.218775 -0.045612
P 16.897213 -10.654345  0.005091
In 13.485660 -13.131156  2.029458
P 13.298261 -10.603079  2.069405
In 15.694060 -9.770232  2.093083
P 15.453034 -7.224407  2.136628
In 19.295477 -9.806240  0.046200
P 19.079052 -7.235707  0.061347
In 14.219538 -6.380407  0.054018
P 13.946883 -3.836288  0.116382
In 17.841963 -6.374957  2.150574
P 17.577495 -3.821115  2.184284
%ENDBLOCK POSITIONS_ABS

KPOINT_MP_GRID: 2 2 8
KPOINT_MP_OFFSET: 0.25 0.25 0.0625
