# written by ASE

%BLOCK LATTICE_CART
14.454049 20.441112  0.000000
14.454049 -20.441112  0.000000
-0.000000  0.000000  4.172525
%ENDBLOCK LATTICE_CART

%BLOCK POSITIONS_ABS
In  9.167687 -3.153379  0.161340
P  8.424272 -0.697616  0.581033
In  5.768335 -3.147353  1.841848
P  6.317148 -0.659421  1.445161
In  9.546540  0.358061  2.572459
P  8.955579  2.852653  2.225496
In 13.237724  0.413413  0.245734
P 12.608393  2.931216  0.134428
In  7.649311  3.653293  0.101179
P  7.439940  6.254090  0.068295
In 11.350744  3.785450  2.209789
P 11.071990  6.346309  2.152895
In  9.816886  7.189464  0.064128
P  9.641802  9.777095  0.046177
In  6.228246  7.168184  2.144558
P 20.511616 -10.685906  2.134177
In  8.434355 10.678011  2.132848
P 22.709292 -7.177652  2.131159
In 12.023914 10.677287  0.021237
P 11.871016 13.255160  0.006777
In 21.460098 -6.321748  0.048597
P 21.274683 -3.746630  0.053860
In 10.655213 14.140275  2.096480
P 25.009940 -3.699897  2.091148
In 16.321875 -2.961305  0.108678
P 15.743572 -0.436834  0.144858
In 12.721118 -2.971424  2.209911
P 12.065313 -0.473587  2.350363
In 16.883192  0.456555  2.223016
P 16.206028  2.961545  2.182722
In 20.491630  0.509635  0.090507
P 19.752097  3.008419  0.046637
In 14.983260  3.838140  0.095820
P 14.687457  6.385321  0.042201
In 18.550819  3.897777  2.132886
P 18.297692  6.433090  2.092382
In 17.058376  7.262065  0.006189
P 16.843186  9.798625 -0.016774
In 13.450819  7.241659  2.127298
P 13.245074  9.803051  2.106432
In 15.632508 10.663190  2.069892
P 15.487526 13.213134  2.039957
In 19.221354 10.653044 -0.046273
P 19.056418 13.172897 -0.079752
In 14.285004 14.075284 -0.046096
P 14.233607 16.639142 -0.085099
In 17.883862 14.050038  2.005379
P  3.352558 -3.849496  1.967767
In 23.700688 -2.955880  0.013511
P 23.170313 -0.372459  0.069332
In 19.971809 -2.933879  2.147657
P 19.396479 -0.408951  2.179197
In 23.607454  0.903355  2.156894
P 23.245143  3.338857  2.076745
In 26.511856  0.519541 -0.215004
P 12.321799 -17.377612 -0.091191
In 22.005069  4.095107 -0.007546
P 21.881250  6.593656 -0.030743
In 25.687681  4.030103  2.001200
P 11.070440 -13.909335  2.007709
In  9.852711 -13.115732 -0.077018
P  9.671056 -10.604885 -0.072763
In 20.645198  7.362578  2.057169
P 20.460701  9.872106  2.039451
In  8.433977 -9.834460  2.010624
P  8.250489 -7.324016  1.977150
In 12.072413 -9.788518 -0.017729
P 11.851174 -7.262742  0.032578
In  7.023446 -6.558857 -0.121571
P  6.865222 -4.062281 -0.222152
In 10.621754 -6.460820  2.121775
P 10.396462 -3.939356  2.236287
In 16.655110 17.479627 -0.117174
P  2.526720 -0.430458 -0.247804
In 13.031126 17.498759  2.002795
P 27.689138 -0.391409  1.875096
In  1.289024  0.410343  1.855884
P 15.943452 -17.479294  1.969501
In  5.019515  0.338430 -0.501249
P  5.178688  2.885828 -0.149768
In 14.767442 -16.597876 -0.107830
P 14.648371 -14.044688 -0.064198
In  3.939845  3.769840  1.945708
P 18.265599 -14.102334  2.036935
In 17.059369 -13.220245 -0.047012
P 16.898222 -10.654793  0.004201
In 13.484345 -13.137355  2.025445
P 13.299670 -10.608039  2.066949
In 15.694610 -9.771219  2.092165
P 15.455186 -7.224399  2.136187
In 19.295725 -9.802921  0.045856
P 19.080919 -7.231306  0.062118
In 14.221092 -6.380932  0.053446
P 13.950454 -3.836413  0.114998
In 17.843214 -6.369867  2.151141
P 17.586412 -3.814678  2.185936
%ENDBLOCK POSITIONS_ABS

KPOINT_MP_GRID: 2 2 8
KPOINT_MP_OFFSET: 0.25 0.25 0.0625
