# written by ASE

%BLOCK LATTICE_CART
11.801682 -0.000008 -0.000008
-0.000008 11.801682 -0.000008
-0.000008 -0.000008 11.801682
%ENDBLOCK LATTICE_CART

%BLOCK POSITIONS_ABS
P  1.346214  1.468891  4.509310
P  4.586620  1.358066  2.550756
P  1.484119  4.391133  1.442393
P  4.418901  4.512306  4.469748
P  1.377727  1.460305 10.162926
P  4.411902  1.462288  7.324291
P  1.465007  4.412592  7.335022
P  4.449074  4.449561 10.257827
P  1.441637  7.339740  4.376099
P  4.408720  7.385842  1.440755
P  1.440768 10.291001  1.468543
P  4.408785 10.183696  4.529192
P  1.457122  7.366651 10.327105
P  4.394169  7.311957  7.384686
P  1.422312 10.274218  7.341565
P  4.402397 10.224032 10.157685
P  7.441306  1.494749  4.465781
P 10.329000  1.459448  1.441232
P  7.426664  4.482781  1.399505
P 10.326197  4.413426  4.396630
P  7.386108  1.491719 10.265205
P 10.268784  1.436476  7.381914
P  7.384543  4.430164  7.346523
P 10.324450  4.421198 10.295873
P  7.362293  7.379422  4.395130
P 10.303085  7.352036  1.439062
P  7.334223 10.335895  1.433992
P 10.283128 10.304246  4.371932
P  7.375768  7.375987 10.293676
P 10.311722  7.362161  7.347405
P  7.364975 10.317979  7.332202
P 10.320692 10.311688 10.329462
In  0.024262  0.008269 -0.036285
In  2.731961 -0.219955  3.243818
In -0.007707  2.927914  2.920316
In  2.815528  3.039218 -0.249872
In -0.104625 -0.054533  5.924555
In  2.914876 -0.029867  8.769087
In -0.067426  2.957791  8.755244
In  2.951076  2.936921  5.846552
In -0.007342  5.882251 -0.009276
In  2.953232  5.890604  2.909546
In -0.044382  8.814479  2.909271
In  2.952240  8.872309 -0.040019
In -0.011082  5.885013  5.874848
In  2.900971  5.883438  8.841508
In -0.029841  8.823850  8.849196
In  2.892534  8.731632  5.938857
In  5.949903 -0.127150 -0.235649
In  8.817981  0.014873  2.912422
In  6.112694  3.206942  3.113747
In  8.872258  2.927911 -0.036762
In  5.888784  0.002131  5.843669
In  8.831052 -0.048959  8.845077
In  5.894701  2.943503  8.784735
In  8.893735  2.950602  5.916192
In  5.879628  5.931743 -0.036641
In  8.864791  5.917167  2.948691
In  5.874284  8.855150  2.925005
In  8.832509  8.847484 -0.006939
In  5.910581  5.940916  5.916178
In  8.844549  5.892766  8.834941
In  5.912921  8.785987  8.754297
In  8.837938  8.842318  5.872618
P  3.856271  0.952640  0.634488
%ENDBLOCK POSITIONS_ABS

KPOINT_MP_GRID: 4 4 4
KPOINT_MP_OFFSET: 0.125 0.125 0.125
