# written by ASE

%BLOCK LATTICE_CART
11.801682 -0.000008 -0.000008
-0.000008 11.801682 -0.000008
-0.000008 -0.000008 11.801682
%ENDBLOCK LATTICE_CART

%BLOCK POSITIONS_ABS
P  1.346825  1.468315  4.508038
P  4.589549  1.357725  2.554104
P  1.483170  4.393364  1.441358
P  4.417396  4.512189  4.468878
P  1.378907  1.461422 10.164846
P  4.411408  1.461817  7.325143
P  1.464766  4.412457  7.335477
P  4.449859  4.449238 10.259047
P  1.440957  7.339829  4.376659
P  4.408976  7.386453  1.441684
P  1.438926 10.290033  1.467668
P  4.407722 10.184041  4.528963
P  1.457212  7.367719 10.326666
P  4.393877  7.310975  7.385022
P  1.422338 10.274214  7.341692
P  4.402494 10.223538 10.157745
P  7.440233  1.494506  4.464608
P 10.329172  1.459558  1.441967
P  7.428469  4.485764  1.398563
P 10.326691  4.412518  4.396631
P  7.385909  1.492055 10.265643
P 10.269133  1.436071  7.381993
P  7.384551  4.429826  7.345183
P 10.323527  4.420248 10.295412
P  7.361559  7.380215  4.394967
P 10.303190  7.352120  1.438941
P  7.335640 10.335489  1.432413
P 10.282769 10.303887  4.372227
P  7.375661  7.375833 10.292711
P 10.311259  7.361591  7.347310
P  7.365172 10.317848  7.332369
P 10.321530 10.311659 10.328975
In  0.024083  0.009251 -0.036428
In  2.732095 -0.219818  3.240211
In -0.005915  2.928189  2.919388
In  2.818278  3.038508 -0.246607
In -0.104546 -0.054750  5.923943
In  2.913927 -0.030145  8.770524
In -0.066962  2.957051  8.756019
In  2.950454  2.936012  5.846880
In -0.008655  5.883133 -0.011471
In  2.952075  5.891922  2.909413
In -0.045077  8.814033  2.909756
In  2.952929  8.872735 -0.039079
In -0.011346  5.884285  5.874897
In  2.900846  5.882730  8.842862
In -0.030093  8.823638  8.848443
In  2.892487  8.730924  5.939046
In  5.949065 -0.127113 -0.236498
In  8.818722  0.014349  2.912376
In  6.113251  3.210177  3.111392
In  8.871616  2.927432 -0.035598
In  5.888429  0.001568  5.844224
In  8.831180 -0.048936  8.845720
In  5.895013  2.943873  8.783953
In  8.893499  2.949188  5.915100
In  5.879489  5.933109 -0.036604
In  8.865943  5.918239  2.950018
In  5.874181  8.857449  2.924527
In  8.833474  8.846432 -0.008420
In  5.909981  5.940681  5.915180
In  8.843987  5.891825  8.834723
In  5.912641  8.785651  8.753834
In  8.837514  8.842030  5.872627
P  3.855859  0.950849  0.639584
%ENDBLOCK POSITIONS_ABS

KPOINT_MP_GRID: 4 4 4
KPOINT_MP_OFFSET: 0.125 0.125 0.125
