# written by ASE

%BLOCK LATTICE_CART
 4.172831  0.000000  0.000000
 0.000000  4.172831  0.000000
 0.000000  0.521604 35.407642
%ENDBLOCK LATTICE_CART

%BLOCK POSITIONS_ABS
In  2.086415  2.086415 14.770440
In  2.086415  2.086415 26.484684
In  0.000000  0.000000 23.554509
In  2.086415  2.086415 20.626128
In  0.000000  0.000000 17.698252
In  0.000000  0.000000 29.415949
In  0.000000  0.000000 11.842900
In  2.086415  2.086415 32.353388
In  0.000000  0.000000  5.992746
In  2.086415  2.086415  3.066377
In  0.000000  0.000000  0.136335
In  2.086415  2.086415  8.916083
P  2.086415  0.000000 13.306320
P  0.000000  2.086415 16.234087
P  0.000000  2.086415 10.378213
P  2.086415  0.000000 19.161950
P  0.000000  2.086415 22.089731
P  2.086415  0.000000  7.449139
P  2.086415  0.000000 25.017108
P  0.000000  2.086415 27.944343
P  0.000000  2.086415  4.522090
P  2.086415  0.000000 30.871322
P  0.000000  2.086415 33.771830
P  2.086415  0.000000  1.583955
%ENDBLOCK POSITIONS_ABS

FIX_ALL_CELL: TRUE
KPOINT_MP_GRID: 8 8 2
KPOINT_MP_OFFSET: 0.0625 0.0625 0.25

%BLOCK IONIC_CONSTRAINTS
1 In 1 1 0 0
2 In 1 0 1 0
3 In 2 1 0 0
4 In 2 0 1 0
5 In 3 1 0 0
6 In 3 0 1 0
7 In 4 1 0 0
8 In 4 0 1 0
9 In 5 1 0 0
10 In 5 0 1 0
11 In 6 1 0 0
12 In 6 0 1 0
13 In 7 1 0 0
14 In 7 0 1 0
15 In 8 1 0 0
16 In 8 0 1 0
17 In 9 1 0 0
18 In 9 0 1 0
19 In 10 1 0 0
20 In 10 0 1 0
21 In 11 1 0 0
22 In 11 0 1 0
23 In 12 1 0 0
24 In 12 0 1 0
25 P 1 1 0 0
26 P 1 0 1 0
27 P 2 1 0 0
28 P 2 0 1 0
29 P 3 1 0 0
30 P 3 0 1 0
31 P 4 1 0 0
32 P 4 0 1 0
33 P 5 1 0 0
34 P 5 0 1 0
35 P 6 1 0 0
36 P 6 0 1 0
37 P 7 1 0 0
38 P 7 0 1 0
39 P 8 1 0 0
40 P 8 0 1 0
41 P 9 1 0 0
42 P 9 0 1 0
43 P 10 1 0 0
44 P 10 0 1 0
45 P 11 1 0 0
46 P 11 0 1 0
47 P 12 1 0 0
48 P 12 0 1 0
%ENDBLOCK IONIC_CONSTRAINTS
