#######################################################
#CASTEP cell file: /home/eng/phrbqc/GitHub/InPDislocs/Devel/Data_Devel/EOS/CASTEP_Files/WZ_EOS_1.1469/WZ_EOS_1.1469.cell
#Created using the Atomic Simulation Environment (ASE)#
#######################################################

%BLOCK LATTICE_CART
 4.776570 -0.000050  0.000000
 2.388242  4.136655 -0.000000
 0.000000 -0.000000  7.844160
%ENDBLOCK LATTICE_CART

%BLOCK POSITIONS_ABS
P  2.388245  1.378859 -0.000102
P  4.776563  2.757755  3.921978
In  2.388259  1.378867  2.937191
In  4.776549  2.757746  6.859271
%ENDBLOCK POSITIONS_ABS

KPOINT_MP_GRID: 9 9 5
KPOINT_MP_OFFSET: 0.055556 0.055556 0.1
