# written by ASE

%BLOCK LATTICE_CART
11.801682 -0.000008 -0.000008
-0.000008 11.801682 -0.000008
-0.000008 -0.000008 11.801682
%ENDBLOCK LATTICE_CART

%BLOCK POSITIONS_ABS
P  1.546646  1.546646  4.464205
P  4.464205  1.546645  1.546645
P  1.546646  4.464205  1.546646
P  4.697059  4.697060  4.697060
In  0.004224  0.004224  0.004224
In  2.971574  0.030884  2.971574
In  0.030884  2.971574  2.971574
In  2.971574  2.971574  0.030884
P  1.489971  1.489971 10.347212
P  4.435455  1.486232  7.374474
P  1.486231  4.435454  7.374474
P  4.423081  4.423081 10.308771
In  0.036117  0.036117  5.902927
In  2.964392  0.011136  8.857824
In  0.011136  2.964391  8.857824
In  3.096020  3.096021  5.881154
P  1.486231  7.374474  4.435454
P  4.435455  7.374474  1.486232
P  1.489971 10.347212  1.489971
P  4.423081 10.308771  4.423081
In  0.036117  5.902927  0.036117
In  3.096020  5.881154  3.096021
In  0.011136  8.857824  2.964391
In  2.964392  8.857824  0.011136
P  1.488025  7.383192 10.328195
P  4.515962  7.266421  7.266421
P  1.488025 10.328195  7.383192
P  4.448137 10.335512 10.335512
In -0.012941  5.899404  5.899404
In  2.991672  5.939619  8.804825
In -0.005782  8.843179  8.843179
In  2.991672  8.804825  5.939619
P  7.374474  1.486232  4.435455
P 10.347212  1.489971  1.489971
P  7.374474  4.435455  1.486232
P 10.308771  4.423081  4.423081
In  5.902927  0.036116  0.036116
In  8.857824  0.011136  2.964392
In  5.881153  3.096021  3.096020
In  8.857824  2.964392  0.011136
P  7.383192  1.488025 10.328195
P 10.328195  1.488025  7.383192
P  7.266423  4.515962  7.266423
P 10.335513  4.448137 10.335513
In  5.899404 -0.012941  5.899404
In  8.843179 -0.005783  8.843179
In  5.939620  2.991672  8.804826
In  8.804826  2.991672  5.939620
P  7.266423  7.266423  4.515962
P 10.328195  7.383192  1.488025
P  7.383192 10.328195  1.488025
P 10.335513 10.335513  4.448137
In  5.899404  5.899404 -0.012941
In  8.804826  5.939620  2.991672
In  5.939620  8.804826  2.991672
In  8.843179  8.843179 -0.005783
P  7.373441  7.373441 10.305874
P 10.305874  7.373441  7.373441
P  7.373441 10.305874  7.373441
P 10.328310 10.328310 10.328309
In  8.793956  5.857079  8.793956
In  5.857079  8.793954  8.793954
In  8.793956  8.793956  5.857079
%ENDBLOCK POSITIONS_ABS

KPOINT_MP_GRID: 4 4 4
KPOINT_MP_OFFSET: 0.125 0.125 0.125
