# written by ASE

%BLOCK LATTICE_CART
11.801682 -0.000008 -0.000008
-0.000008 11.801682 -0.000008
-0.000008 -0.000008 11.801682
%ENDBLOCK LATTICE_CART

%BLOCK POSITIONS_ABS
P  1.546928  1.546928  4.463665
P  4.463665  1.546928  1.546928
P  1.546928  4.463665  1.546928
P  4.697501  4.697501  4.697501
In  0.003996  0.003996  0.003996
In  2.970798  0.030880  2.970798
In  0.030880  2.970798  2.970798
In  2.970798  2.970798  0.030880
P  1.489446  1.489446 10.346880
P  4.435151  1.485993  7.374381
P  1.485993  4.435151  7.374381
P  4.422866  4.422866 10.309628
In  0.036363  0.036363  5.902384
In  2.963895  0.010833  8.857610
In  0.010833  2.963895  8.857610
In  3.096121  3.096121  5.880435
P  1.485993  7.374381  4.435151
P  4.435151  7.374381  1.485993
P  1.489446 10.346881  1.489446
P  4.422866 10.309629  4.422866
In  0.036363  5.902384  0.036363
In  3.096121  5.880435  3.096121
In  0.010833  8.857610  2.963895
In  2.963895  8.857610  0.010833
P  1.488378  7.382598 10.327798
P  4.519097  7.265186  7.265186
P  1.488378 10.327798  7.382598
P  4.447698 10.335440 10.335440
In -0.012825  5.899345  5.899345
In  2.992606  5.939495  8.804112
In -0.004945  8.843854  8.843853
In  2.992606  8.804112  5.939495
P  7.374381  1.485993  4.435151
P 10.346881  1.489446  1.489446
P  7.374381  4.435151  1.485993
P 10.309629  4.422866  4.422866
In  5.902384  0.036363  0.036363
In  8.857610  0.010833  2.963895
In  5.880435  3.096121  3.096121
In  8.857610  2.963895  0.010833
P  7.382598  1.488378 10.327798
P 10.327798  1.488378  7.382598
P  7.265186  4.519097  7.265186
P 10.335440  4.447697 10.335440
In  5.899345 -0.012826  5.899345
In  8.843854 -0.004945  8.843854
In  5.939495  2.992605  8.804112
In  8.804112  2.992605  5.939495
P  7.265186  7.265186  4.519097
P 10.327798  7.382598  1.488378
P  7.382598 10.327798  1.488377
P 10.335440 10.335440  4.447697
In  5.899345  5.899345 -0.012826
In  8.804112  5.939495  2.992605
In  5.939495  8.804112  2.992605
In  8.843854  8.843854 -0.004945
P  7.373982  7.373982 10.307152
P 10.307152  7.373982  7.373982
P  7.373982 10.307152  7.373982
P 10.328398 10.328398 10.328397
In  8.794542  5.858410  8.794542
In  5.858410  8.794542  8.794542
In  8.794542  8.794542  5.858410
%ENDBLOCK POSITIONS_ABS

KPOINT_MP_GRID: 4 4 4
KPOINT_MP_OFFSET: 0.125 0.125 0.125
