# written by ASE

%BLOCK LATTICE_CART
14.454049 20.441112  0.000000
14.454049 -20.441112  0.000000
-0.000000  0.000000  4.172525
%ENDBLOCK LATTICE_CART

%BLOCK POSITIONS_ABS
In  9.141285 -3.175291  0.140213
P  8.423909 -0.710414  0.581921
In  5.739339 -3.165036  1.788549
P  6.316622 -0.676522  1.386279
In  9.523145  0.363580  2.579240
P  8.982335  2.865967  2.222600
In 13.178937  0.418747  0.294595
P 12.615625  2.947283  0.166868
In  7.694135  3.686871  0.095659
P  7.473609  6.284650  0.072973
In 11.368235  3.810382  2.239390
P 11.090469  6.373250  2.177873
In  9.845519  7.229239  0.087040
P  9.651343  9.817295  0.066124
In  6.265593  7.201895  2.147945
P 20.526108 -10.656356  2.141563
In  8.446454 10.720342  2.151837
P 22.699097 -7.137111  2.153419
In 12.021275 10.750753  0.049371
P 11.838661 13.337448  0.041722
In 21.426753 -6.325053  0.070605
P 21.174199 -3.764057  0.077576
In 10.624491 14.260403  2.138866
P 24.943346 -3.561411  2.158505
In 16.260362 -2.961829  0.137988
P 15.662083 -0.441603  0.228956
In 12.675720 -2.978548  2.215737
P 12.018367 -0.479330  2.396332
In 16.788854  0.460588  2.311486
P 16.211255  2.980507  2.239203
In 20.383736  0.488884  0.237065
P 19.782766  3.000164  0.122525
In 14.989124  3.856572  0.148462
P 14.694190  6.406303  0.081007
In 18.582265  3.870044  2.203225
P 18.313186  6.405762  2.126707
In 17.080477  7.248119  0.037749
P 16.845666  9.789504 -0.012931
In 13.464366  7.281717  2.164395
P 13.236644  9.848665  2.133832
In 15.636219 10.671996  2.072097
P 15.466347 13.226628  2.003808
In 19.239370 10.602775 -0.057798
P 19.044147 13.131859 -0.120955
In 14.265825 14.115231 -0.085171
P 14.194651 16.684538 -0.157794
In 17.872941 14.032120  1.961187
P  3.324785 -3.862956  1.901233
In 23.554825 -2.805844  0.107517
P 22.824733 -0.345357  0.474907
In 19.885662 -2.924332  2.173747
P 19.255210 -0.412135  2.319883
In 23.945120  0.652149  2.574055
P 23.331433  3.119279  2.156422
In 26.607349  0.610136 -0.620818
P 12.443049 -17.315439 -0.129719
In 22.131886  3.929193  0.063176
P 21.922826  6.455626 -0.005084
In 25.705656  3.997053  1.976909
P 11.086465 -13.931956  1.957284
In  9.857633 -13.155175 -0.124627
P  9.664304 -10.641757 -0.105968
In 20.691193  7.262782  2.082094
P 20.474284  9.787111  2.029122
In  8.428095 -9.867208  1.978395
P  8.228237 -7.354519  1.937775
In 12.065021 -9.821256 -0.046367
P 11.825176 -7.294594  0.008792
In  7.003431 -6.578698 -0.162501
P  6.840513 -4.078000 -0.272263
In 10.598417 -6.489867  2.097174
P 10.362147 -3.967374  2.215905
In 16.632096 17.491536 -0.186354
P  2.615539 -0.431737 -0.413386
In 13.001415 17.613609  1.930009
P 27.841365 -0.329298  1.503885
In  1.381338  0.426603  1.681406
P 16.045235 -17.465237  1.916545
In  5.086468  0.359270 -0.583049
P  5.243200  2.901418 -0.191021
In 14.864723 -16.582659 -0.155686
P 14.697931 -14.034591 -0.108923
In  4.020319  3.799590  1.903762
P 18.310443 -14.077259  2.015889
In 17.098697 -13.200579 -0.068153
P 16.902293 -10.643748 -0.008171
In 13.504249 -13.168202  1.980416
P 13.294878 -10.637698  2.038432
In 15.682078 -9.779692  2.078841
P 15.422200 -7.235294  2.130430
In 19.296421 -9.791958  0.052343
P 19.048381 -7.229050  0.075585
In 14.186817 -6.392866  0.046702
P 13.897321 -3.849097  0.120023
In 17.805898 -6.373390  2.163952
P 17.511106 -3.823610  2.212231
%ENDBLOCK POSITIONS_ABS

KPOINT_MP_GRID: 2 2 8
KPOINT_MP_OFFSET: 0.25 0.25 0.0625
