# written by ASE

%BLOCK LATTICE_CART
14.454049 20.441112  0.000000
14.454049 -20.441112  0.000000
-0.000000  0.000000  4.172525
%ENDBLOCK LATTICE_CART

%BLOCK POSITIONS_ABS
In  9.139373 -3.169751  0.147650
P  8.417448 -0.705527  0.593572
In  5.737513 -3.169568  1.783036
P  6.308878 -0.679114  1.387643
In  9.532888  0.364475  2.585003
P  8.983231  2.865579  2.228629
In 13.193779  0.419897  0.285709
P 12.619115  2.946161  0.162531
In  7.692439  3.682234  0.101231
P  7.471220  6.281096  0.073057
In 11.369519  3.807515  2.234723
P 11.089663  6.370430  2.174399
In  9.843253  7.225445  0.083703
P  9.650571  9.814069  0.063564
In  6.263242  7.198985  2.147950
P 20.525291 -10.658614  2.141015
In  8.445910 10.717646  2.149345
P 22.699839 -7.139465  2.151150
In 12.020431 10.747428  0.047816
P 11.839045 13.334087  0.040400
In 21.428601 -6.326490  0.068375
P 21.179034 -3.765025  0.073926
In 10.625344 14.256370  2.137492
P 24.944456 -3.566101  2.157454
In 16.265437 -2.962971  0.136642
P 15.675352 -0.441743  0.224246
In 12.679637 -2.976205  2.217002
P 12.028501 -0.475600  2.387588
In 16.801734  0.459778  2.306972
P 16.211320  2.977476  2.235842
In 20.392545  0.489146  0.230875
P 19.781097  2.997907  0.119508
In 14.990642  3.856669  0.144911
P 14.694375  6.405773  0.078931
In 18.580453  3.869340  2.199926
P 18.313241  6.405332  2.124982
In 17.080173  7.248109  0.036034
P 16.846305  9.789141 -0.013410
In 13.463009  7.280245  2.162459
P 13.236639  9.846732  2.132279
In 15.636027 10.670308  2.071590
P 15.466648 13.224625  2.003774
In 19.239209 10.604383 -0.056478
P 19.044371 13.133056 -0.119403
In 14.265711 14.111930 -0.085307
P 14.193252 16.681159 -0.155855
In 17.872233 14.032371  1.962845
P  3.323316 -3.863366  1.902066
In 23.559920 -2.810977  0.105558
P 22.834063 -0.348316  0.468741
In 19.890937 -2.926933  2.169639
P 19.268420 -0.413351  2.313847
In 23.945792  0.657197  2.568231
P 23.327393  3.121856  2.156015
In 26.603439  0.609585 -0.614461
P 12.437599 -17.314733 -0.127950
In 22.127032  3.932315  0.062263
P 21.921560  6.458527 -0.005038
In 25.701700  3.999943  1.979102
P 11.084476 -13.928998  1.959592
In  9.856220 -13.151326 -0.122406
P  9.663943 -10.638160 -0.104058
In 20.689842  7.265790  2.082088
P 20.474543  9.789906  2.030401
In  8.428180 -9.863555  1.980130
P  8.229740 -7.351049  1.939125
In 12.064244 -9.816667 -0.043977
P 11.825819 -7.289689  0.010707
In  7.003678 -6.577328 -0.161167
P  6.842161 -4.076959 -0.276356
In 10.599312 -6.483177  2.099207
P 10.362480 -3.960177  2.223173
In 16.628845 17.489696 -0.185361
P  2.604466 -0.431624 -0.403376
In 12.999799 17.607081  1.932338
P 27.832173 -0.334657  1.510136
In  1.370397  0.426918  1.692107
P 16.037635 -17.464321  1.918924
In  5.075779  0.359313 -0.578963
P  5.239199  2.901216 -0.191774
In 14.859594 -16.580155 -0.153512
P 14.694422 -14.032333 -0.106341
In  4.014635  3.798864  1.902993
P 18.306757 -14.077641  2.016628
In 17.095901 -13.199883 -0.067370
P 16.901371 -10.642872 -0.007574
In 13.502149 -13.164083  1.983096
P 13.293842 -10.633732  2.040734
In 15.681874 -9.777888  2.079528
P 15.423900 -7.233415  2.130502
In 19.296395 -9.793222  0.051944
P 19.050157 -7.230042  0.074423
In 14.188654 -6.390822  0.046857
P 13.900919 -3.846933  0.121074
In 17.808513 -6.373946  2.162856
P 17.515719 -3.824152  2.210926
%ENDBLOCK POSITIONS_ABS

KPOINT_MP_GRID: 2 2 8
KPOINT_MP_OFFSET: 0.25 0.25 0.0625
