# written by ASE

%BLOCK LATTICE_CART
11.801682 -0.000008 -0.000008
-0.000008 11.801682 -0.000008
-0.000008 -0.000008 11.801682
%ENDBLOCK LATTICE_CART

%BLOCK POSITIONS_ABS
P  1.425950  1.410531  4.417635
P  3.941690  0.765817  0.764364
P  1.425950  4.419087  1.409078
P  4.481915  4.500119  4.498666
P  1.378606  1.405037 10.179004
P  4.413264  1.421206  7.319982
P  1.467416  4.360891  7.299985
P  4.411730  4.361827 10.272557
P  1.467416  7.301438  4.359438
P  4.413264  7.321434  1.419753
P  1.378606 10.180456  1.403585
P  4.411730 10.274009  4.360375
P  1.455384  7.321400 10.266418
P  4.362607  7.342363  7.340911
P  1.455384 10.267871  7.319948
P  4.441021 10.210419 10.208967
P  7.439217  1.395840  4.416736
P 10.353359  1.419069  1.417617
P  7.439217  4.418188  1.394388
P 10.331962  4.370743  4.369290
P  7.406242  1.448146 10.249262
P 10.278721  1.417327  7.321452
P  7.374890  4.383614  7.339143
P 10.326841  4.382535 10.264091
P  7.374890  7.340596  4.382162
P 10.278721  7.322905  1.415875
P  7.406242 10.250715  1.446693
P 10.326841 10.265543  4.381082
P  7.352266  7.314327 10.266531
P 10.310613  7.319059  7.317606
P  7.352266 10.267984  7.312874
P 10.300159 10.257963 10.256510
In -0.013853 -0.077369 -0.078821
In  2.782452 -0.178009  2.957210
In  0.023093  2.898630  2.897178
In  2.782452  2.958663 -0.179462
In -0.040062 -0.051217  5.881873
In  2.949525 -0.076302  8.794551
In -0.053150  2.911357  8.739718
In  2.976867  2.911094  5.815693
In -0.040062  5.883326 -0.052670
In  2.976867  5.817145  2.909642
In -0.053150  8.741170  2.909905
In  2.949525  8.796004 -0.077755
In -0.003942  5.850281  5.848829
In  2.918454  5.829559  8.800962
In -0.012688  8.789676  8.788224
In  2.918454  8.802414  5.828107
In  6.044993 -0.173096 -0.174548
In  8.889532 -0.052075  2.888450
In  6.130275  3.092369  3.090917
In  8.889532  2.889903 -0.053527
In  5.877572 -0.048770  5.845006
In  8.835218 -0.069325  8.784972
In  5.884675  2.897246  8.788294
In  8.862976  2.924123  5.864079
In  5.877572  5.846458 -0.050222
In  8.862976  5.865532  2.922670
In  5.884675  8.789746  2.895794
In  8.835218  8.786424 -0.070778
In  5.921871  5.946605  5.945152
In  8.844436  5.850575  8.810196
In  5.886435  8.760622  8.759169
In  8.844436  8.811648  5.849123
P  3.961772  2.276318  2.274865
%ENDBLOCK POSITIONS_ABS

KPOINT_MP_GRID: 4 4 4
KPOINT_MP_OFFSET: 0.125 0.125 0.125
