# written by ASE

%BLOCK LATTICE_CART
11.801682 -0.000008 -0.000008
-0.000008 11.801682 -0.000008
-0.000008 -0.000008 11.801682
%ENDBLOCK LATTICE_CART

%BLOCK POSITIONS_ABS
P  1.424231  1.412942  4.421040
P  3.941790  0.766528  0.765129
P  1.424231  4.422439  1.411543
P  4.481824  4.502039  4.500640
P  1.378296  1.408689 10.182832
P  4.412999  1.424278  7.322869
P  1.467893  4.364193  7.302973
P  4.411208  4.363708 10.276345
P  1.467893  7.304372  4.362794
P  4.412999  7.324268  1.422879
P  1.378296 10.184231  1.407290
P  4.411208 10.277744  4.362309
P  1.455950  7.324769 10.269353
P  4.363174  7.344497  7.343098
P  1.455950 10.270752  7.323370
P  4.441294 10.210918 10.209519
P  7.439080  1.399040  4.419838
P 10.353791  1.421830  1.420431
P  7.439080  4.421237  1.397641
P 10.331278  4.373625  4.372226
P  7.406488  1.450081 10.251511
P 10.279385  1.420257  7.324260
P  7.374952  4.386271  7.341728
P 10.326118  4.385533 10.266607
P  7.374952  7.343127  4.384872
P 10.279385  7.325659  1.418857
P  7.406488 10.252910  1.448682
P 10.326118 10.268006  4.384134
P  7.352411  7.316420 10.269661
P 10.310876  7.321843  7.320444
P  7.352411 10.271060  7.315021
P 10.299582 10.260341 10.258942
In -0.014746 -0.075587 -0.076986
In  2.784339 -0.171062  2.958914
In  0.022921  2.902089  2.900689
In  2.784339  2.960313 -0.172461
In -0.040163 -0.049512  5.885346
In  2.949282 -0.072539  8.798615
In -0.052784  2.914635  8.742549
In  2.976093  2.913341  5.818024
In -0.040163  5.886745 -0.050911
In  2.976093  5.819423  2.911942
In -0.052784  8.743948  2.913236
In  2.949282  8.800014 -0.073938
In -0.003824  5.852864  5.851465
In  2.919188  5.832586  8.804406
In -0.012487  8.792494  8.791095
In  2.919188  8.805805  5.831187
In  6.044347 -0.171902 -0.173301
In  8.888961 -0.049145  2.891085
In  6.129946  3.094313  3.092913
In  8.888961  2.892484 -0.050544
In  5.877022 -0.045642  5.847675
In  8.835630 -0.066521  8.787005
In  5.885014  2.900195  8.790995
In  8.862898  2.926664  5.867130
In  5.877022  5.849074 -0.047041
In  8.862898  5.868529  2.925265
In  5.885014  8.792394  2.898795
In  8.835630  8.788404 -0.067920
In  5.921679  5.948230  5.946831
In  8.844385  5.853530  8.812503
In  5.887939  8.761960  8.760561
In  8.844385  8.813902  5.852131
P  3.962833  2.278290  2.276891
%ENDBLOCK POSITIONS_ABS

KPOINT_MP_GRID: 4 4 4
KPOINT_MP_OFFSET: 0.125 0.125 0.125
