#######################################################
#CASTEP cell file: /home/eng/phrbqc/GitHub/InPDislocs/Devel/Data_Devel/EOS/CASTEP_Files/ZB_EOS_0.6831/ZB_EOS_0.6831.cell
#Created using the Atomic Simulation Environment (ASE)#
#######################################################

%BLOCK LATTICE_CART
 4.031452  0.000000 -0.000000
 0.000000  4.031452 -0.000000
-0.000000 -0.000000  4.031452
%ENDBLOCK LATTICE_CART

%BLOCK POSITIONS_ABS
P  1.007863  1.007863  3.023589
P  3.023589  1.007863  1.007863
P  1.007863  3.023589  1.007863
P  3.023589  3.023589  3.023589
In  0.000000  0.000000  0.000000
In  2.015726  0.000000  2.015726
In  0.000000  2.015726  2.015726
In  2.015726  2.015726  0.000000
%ENDBLOCK POSITIONS_ABS

KPOINT_MP_GRID: 9 9 9
KPOINT_MP_OFFSET: 0.055556 0.055556 0.055556
