#######################################################
#CASTEP cell file: /home/eng/phrbqc/GitHub/InPDislocs/Devel/Data_Devel/EOS/CASTEP_Files/ZB_EOS_0.8857/ZB_EOS_0.8857.cell
#Created using the Atomic Simulation Environment (ASE)#
#######################################################

%BLOCK LATTICE_CART
 5.226643  0.000000 -0.000000
 0.000000  5.226643 -0.000000
-0.000000 -0.000000  5.226643
%ENDBLOCK LATTICE_CART

%BLOCK POSITIONS_ABS
P  1.306661  1.306661  3.919982
P  3.919982  1.306661  1.306661
P  1.306661  3.919982  1.306661
P  3.919982  3.919982  3.919982
In  0.000000  0.000000  0.000000
In  2.613322  0.000000  2.613322
In  0.000000  2.613322  2.613322
In  2.613322  2.613322  0.000000
%ENDBLOCK POSITIONS_ABS

KPOINT_MP_GRID: 7 7 7
KPOINT_MP_OFFSET: 0.071429 0.071429 0.071429
