# written by ASE

%BLOCK LATTICE_CART
11.801682 -0.000008 -0.000008
-0.000008 11.801682 -0.000008
-0.000008 -0.000008 11.801682
%ENDBLOCK LATTICE_CART

%BLOCK POSITIONS_ABS
P  1.398991  1.380813  4.400318
P  3.952160  0.623693  0.621369
P  1.398991  4.402641  1.378489
P  4.463708  4.424366  4.422042
P  1.398974  1.380730 10.158263
P  4.413133  1.380773  7.279294
P  1.463268  4.327226  7.266902
P  4.411367  4.323951 10.236952
P  1.463268  7.269226  4.324902
P  4.413133  7.281618  1.378450
P  1.398974 10.160587  1.378407
P  4.411367 10.239276  4.321627
P  1.463259  7.294000 10.233678
P  4.358607  7.281621  7.279297
P  1.463259 10.236002  7.291676
P  4.463686 10.138881 10.136557
P  7.422469  1.352421  4.363187
P 10.354067  1.380773  1.378449
P  7.422469  4.365511  1.350098
P 10.315545  4.338072  4.335748
P  7.422456  1.409122 10.195404
P 10.276227  1.380769  7.279290
P  7.363503  4.340711  7.291178
P 10.327356  4.341491 10.219408
P  7.363503  7.293502  4.338387
P 10.276227  7.281614  1.378445
P  7.422456 10.197728  1.406798
P 10.327356 10.221732  4.339167
P  7.363492  7.269726 10.220192
P 10.312197  7.281609  7.279285
P  7.363492 10.222516  7.267402
P 10.315528 10.225144 10.222821
In  0.005284 -0.107888 -0.110212
In  2.785036 -0.183402  2.942621
In  0.005289  2.869445  2.867121
In  2.785036  2.944945 -0.185726
In -0.047989 -0.102779  5.854267
In  2.963653 -0.110745  8.772383
In -0.047997  2.864341  8.704325
In  2.963661  2.872294  5.786200
In -0.047989  5.856591 -0.105103
In  2.963661  5.788524  2.869970
In -0.047997  8.706649  2.862017
In  2.963653  8.774707 -0.113069
In -0.007459  5.811602  5.809278
In  2.917105  5.793004  8.767902
In -0.007467  8.751634  8.749310
In  2.917105  8.770226  5.790680
In  6.090556 -0.251051 -0.253375
In  8.891646 -0.090751  2.849978
In  6.090574  3.012627  3.010303
In  8.891646  2.852302 -0.093075
In  5.880831 -0.094207  5.809362
In  8.847666 -0.115471  8.741165
In  5.880829  2.855756  8.749225
In  8.847673  2.877019  5.817423
In  5.880831  5.811686 -0.096531
In  8.847673  5.819747  2.874695
In  5.880829  8.751549  2.853432
In  8.847666  8.743488 -0.117795
In  5.901100  5.875478  5.873154
In  8.844420  5.801761  8.759147
In  5.901086  8.687771  8.685447
In  8.844420  8.761471  5.799437
P  3.952161  2.137917  2.135593
%ENDBLOCK POSITIONS_ABS

FIX_ALL_CELL: TRUE
KPOINT_MP_GRID: 4 4 4
KPOINT_MP_OFFSET: 0.125 0.125 0.125
