# written by ASE

%BLOCK LATTICE_CART
11.801682 -0.000008 -0.000008
-0.000008 11.801682 -0.000008
-0.000008 -0.000008 11.801682
%ENDBLOCK LATTICE_CART

%BLOCK POSITIONS_ABS
P  1.454620  1.391430  4.366909
P  4.440423  1.217734  1.216572
P  1.454620  4.368071  1.390267
P  3.977686  4.764315  4.763153
P  1.443644  1.405767 10.255160
P  4.405584  1.419711  7.311335
P  1.377269  4.398902  7.396663
P  4.403892  4.354667 10.259436
P  1.377269  7.397825  4.397740
P  4.405584  7.312497  1.418548
P  1.443644 10.256322  1.404605
P  4.403892 10.260598  4.353505
P  1.445977  7.322088 10.268107
P  4.419593  7.310561  7.309399
P  1.445977 10.269269  7.320926
P  4.395079 10.229956 10.228794
P  7.502587  1.332003  4.398793
P 10.340723  1.413871  1.412709
P  7.502587  4.399955  1.330841
P 10.341043  4.366592  4.365430
P  7.381719  1.408620 10.236053
P 10.321950  1.388803  7.323311
P  7.382594  4.345174  7.320032
P 10.301763  4.380514 10.240359
P  7.382594  7.321195  4.344012
P 10.321950  7.324473  1.387641
P  7.381719 10.237216  1.407458
P 10.301763 10.241521  4.379352
P  7.320745  7.303641 10.270085
P 10.282335  7.330171  7.329009
P  7.320745 10.271248  7.302479
P 10.293196 10.259623 10.258461
In -0.018527 -0.073998 -0.075160
In  2.948167 -0.070242  2.857225
In  0.022704  2.894483  2.893321
In  2.948167  2.858387 -0.071404
In -0.024724 -0.074477  5.820228
In  2.928680 -0.065623  8.787813
In -0.050738  2.876000  8.814561
In  2.786671  2.854203  5.979605
In -0.024724  5.821390 -0.075639
In  2.786671  5.980767  2.853041
In -0.050738  8.815724  2.874838
In  2.928680  8.788976 -0.066785
In -0.040166  5.864133  5.862970
In  2.934383  5.866958  8.802727
In -0.023766  8.792573  8.791411
In  2.934383  8.803889  5.865796
In  5.955799 -0.166805 -0.167967
In  8.902435 -0.117700  2.852845
In  6.272314  2.653836  2.652674
In  8.902435  2.854007 -0.118862
In  5.861939 -0.045429  5.804723
In  8.824556 -0.082544  8.765618
In  5.882441  2.887760  8.785477
In  8.896389  2.902136  5.864163
In  5.861939  5.805885 -0.046592
In  8.896389  5.865326  2.900974
In  5.882441  8.786639  2.886598
In  8.824556  8.766780 -0.083706
In  5.963931  5.859328  5.858166
In  8.814829  5.856713  8.798069
In  5.860007  8.775747  8.774585
In  8.814829  8.799231  5.855550
P  4.005748  3.251693  3.250531
%ENDBLOCK POSITIONS_ABS

KPOINT_MP_GRID: 4 4 4
KPOINT_MP_OFFSET: 0.125 0.125 0.125
