# written by ASE

%BLOCK LATTICE_CART
11.801682 -0.000008 -0.000008
-0.000008 11.801682 -0.000008
-0.000008 -0.000008 11.801682
%ENDBLOCK LATTICE_CART

%BLOCK POSITIONS_ABS
P  1.455347  1.390871  4.366690
P  4.439836  1.217612  1.216449
P  1.455347  4.367852  1.389709
P  3.982614  4.763715  4.762553
P  1.442353  1.405764 10.255378
P  4.404834  1.419179  7.311838
P  1.377102  4.399063  7.395269
P  4.403722  4.355231 10.258301
P  1.377102  7.396431  4.397901
P  4.404834  7.313000  1.418017
P  1.442353 10.256540  1.404602
P  4.403722 10.259463  4.354069
P  1.446155  7.321920 10.267792
P  4.419346  7.309734  7.308572
P  1.446155 10.268954  7.320758
P  4.395038 10.230370 10.229208
P  7.502183  1.332030  4.399782
P 10.340981  1.414441  1.413279
P  7.502183  4.400944  1.330867
P 10.339968  4.366146  4.364984
P  7.381581  1.409295 10.235251
P 10.322082  1.389225  7.323344
P  7.383666  4.345073  7.320730
P 10.302157  4.380759 10.240292
P  7.383666  7.321892  4.343911
P 10.322082  7.324506  1.388062
P  7.381581 10.236413  1.408133
P 10.302157 10.241454  4.379596
P  7.320618  7.304414 10.269410
P 10.282119  7.330412  7.329250
P  7.320618 10.270572  7.303252
P 10.292674 10.259285 10.258123
In -0.020182 -0.074040 -0.075202
In  2.948182 -0.071757  2.857196
In  0.023802  2.894957  2.893795
In  2.948182  2.858358 -0.072919
In -0.025134 -0.074346  5.820685
In  2.927853 -0.065634  8.788675
In -0.050514  2.876511  8.813978
In  2.786836  2.854997  5.979726
In -0.025134  5.821848 -0.075509
In  2.786836  5.980889  2.853835
In -0.050514  8.815140  2.875349
In  2.927853  8.789837 -0.066796
In -0.041552  5.863756  5.862594
In  2.934056  5.866708  8.802034
In -0.023332  8.792543  8.791381
In  2.934056  8.803196  5.865546
In  5.956788 -0.166902 -0.168064
In  8.902834 -0.117669  2.853456
In  6.273256  2.651930  2.650768
In  8.902834  2.854618 -0.118831
In  5.861787 -0.046512  5.806030
In  8.824330 -0.082189  8.765304
In  5.881327  2.888392  8.783785
In  8.896139  2.902014  5.864166
In  5.861787  5.807193 -0.047674
In  8.896139  5.865328  2.900852
In  5.881327  8.784947  2.887230
In  8.824330  8.766466 -0.083351
In  5.966946  5.860829  5.859666
In  8.814870  5.857000  8.798715
In  5.858772  8.775410  8.774248
In  8.814870  8.799877  5.855838
P  4.007060  3.253837  3.252675
%ENDBLOCK POSITIONS_ABS

KPOINT_MP_GRID: 4 4 4
KPOINT_MP_OFFSET: 0.125 0.125 0.125
