# written by ASE

%BLOCK LATTICE_CART
14.454049 20.441112  0.000000
14.454049 -20.441112  0.000000
-0.000000  0.000000  4.172525
%ENDBLOCK LATTICE_CART

%BLOCK POSITIONS_ABS
In  9.896924 -2.944530  3.656586
P 10.268011 -0.414160  3.117206
In  6.177165 -2.961908  1.973117
P  5.969610 -0.399935  2.105818
In  8.155355  0.702299  2.486018
P  8.264378  3.176591  2.265617
In 11.530443  0.501874  0.978861
P 11.813703  3.010703  0.439282
In  7.034924  3.982429  0.160263
P  7.132681  6.503670  0.087507
In 10.690499  3.958698  2.493583
P 10.763204  6.480620  2.298933
In  9.557027  7.308285  0.187530
P  9.641692  9.837113 -0.001795
In  5.919973  7.315133  2.156388
P 20.461563 -10.595969  2.001329
In  8.430891 10.660939  2.061534
P 22.972503 -7.250683  1.863516
In 12.060996 10.665806  0.073441
P 12.136999 13.203777 -0.056020
In 21.773100 -6.411945  3.921409
P 21.856713 -3.889017  3.682451
In 10.927251 14.031956  2.015389
P 25.423942 -3.874489  1.923117
In 17.134957 -2.956771  3.592561
P 17.397912 -0.419474  3.241084
In 13.540415 -2.976023  1.493483
P 13.853120 -0.438533  1.067559
In 15.054657  0.477749  3.107839
P 15.392802  2.995748  2.633046
In 18.633062  0.449267  1.117120
P 18.994651  2.970782  0.593019
In 14.224884  3.887284  0.526238
P 14.357413  6.431392  0.301500
In 17.818737  3.867507  2.664905
P 17.953995  6.416331  2.417945
In 16.775585  7.287957  0.315097
P 16.880693  9.838762  0.133960
In 13.182157  7.302141  2.366573
P 13.269505  9.837289  2.178812
In 15.684113 10.689868  2.206570
P 15.754171 13.237036  2.084172
In 19.302928 10.695196  0.100739
P 19.394976 13.258822 -0.016432
In 14.542104 14.073376 -0.012051
P 14.566178 16.619641 -0.057563
In 18.171552 14.090055  2.066892
P  3.752606 -3.795076  2.026570
In 24.236382 -2.975395  3.989572
P 24.177168 -0.499010  4.489082
In 20.696821 -2.968302  1.553850
P 20.943069 -0.481345  1.018535
In 22.468492  0.330718  2.852533
P 22.665814  2.906439  2.572623
In 26.500849  0.380310  4.167241
P 26.374293  2.935830  0.206363
In 21.450077  3.779888  0.494638
P 21.561750  6.353708  0.273103
In 25.107087  3.727382  2.318824
P 10.723922 -14.129944  2.212750
In  9.533639 -13.241697  4.301181
P  9.631144 -10.665400  4.191480
In 20.384771  7.246412  2.352537
P 20.485989  9.812884  2.193934
In  8.451251 -9.769418  2.103500
P  8.555316 -7.196960  1.991793
In 12.048986 -9.809118  4.083662
P 12.165698 -7.249924  3.903687
In  7.367295 -6.312146  4.081730
P  7.454366 -3.725632  4.034294
In 10.984311 -6.370255  1.805973
P 11.099551 -3.813343  1.586522
In  2.517387 -2.970178  4.118570
P  2.396802 -0.418014  0.040935
In 13.348522 17.457479  2.025546
P 27.743391 -0.437275  2.084363
In  1.202608  0.440372  2.135371
P 15.544502 -17.453000  2.190239
In  4.751969  0.482998  0.025698
P  4.686619  3.028206  0.093895
In 14.316830 -16.621061  4.281456
P 14.360955 -14.067890  4.214088
In  3.476064  3.869017  2.177291
P 17.983312 -14.027701  2.112609
In 16.768144 -13.196936  4.189263
P 16.849797 -10.649952  4.057999
In 13.135047 -13.242180  2.124231
P 13.236785 -10.679215  2.004766
In 15.648427 -9.808351  1.958820
P 15.763188 -7.258543  1.766691
In 19.253828 -9.773606  4.068926
P 19.355936 -7.238445  3.874185
In 14.583970 -6.391783  3.835228
P 14.716679 -3.841869  3.603038
In 18.170253 -6.387227  1.765403
P 18.288619 -3.846592  1.536027
%ENDBLOCK POSITIONS_ABS

KPOINT_MP_GRID: 2 2 8
KPOINT_MP_OFFSET: 0.25 0.25 0.0625
