# written by ASE

%BLOCK LATTICE_CART
14.454049 20.441112  0.000000
14.454049 -20.441112  0.000000
-0.000000  0.000000  4.172525
%ENDBLOCK LATTICE_CART

%BLOCK POSITIONS_ABS
In  9.898690 -2.944229  3.655065
P 10.278216 -0.417471  3.101745
In  6.178138 -2.959303  1.972404
P  5.968928 -0.398713  2.109232
In  8.156305  0.697298  2.500379
P  8.262184  3.172659  2.269666
In 11.533719  0.503993  0.965794
P 11.811737  3.014889  0.441651
In  7.034950  3.981555  0.164082
P  7.132638  6.502644  0.088625
In 10.686273  3.958983  2.496761
P 10.762105  6.480778  2.299964
In  9.556466  7.308533  0.188615
P  9.641403  9.837104 -0.001421
In  5.919890  7.314067  2.157277
P 20.461328 -10.596976  2.001426
In  8.430481 10.660275  2.061892
P 22.972622 -7.251566  1.862688
In 12.060661 10.665719  0.074291
P 12.137068 13.203667 -0.056333
In 21.773094 -6.413529  3.920607
P 21.857043 -3.890934  3.680526
In 10.927100 14.031585  2.015075
P 25.423905 -3.875058  1.921769
In 17.135438 -2.956215  3.590271
P 17.400140 -0.418287  3.239387
In 13.540263 -2.975064  1.490908
P 13.856049 -0.437819  1.062904
In 15.056460  0.478366  3.104635
P 15.391194  2.998094  2.636852
In 18.634283  0.450878  1.116540
P 18.993662  2.973462  0.597333
In 14.223233  3.889008  0.530407
P 14.356599  6.432572  0.303541
In 17.817004  3.869270  2.669621
P 17.952896  6.417963  2.420894
In 16.774356  7.289095  0.318143
P 16.880380  9.839827  0.135103
In 13.180923  7.301923  2.368668
P 13.269095  9.837233  2.179708
In 15.683525 10.690424  2.207653
P 15.754454 13.237661  2.083656
In 19.302740 10.696031  0.101627
P 19.395690 13.259704 -0.016957
In 14.542014 14.073607 -0.012676
P 14.566179 16.619803 -0.059127
In 18.172027 14.090675  2.066403
P  3.753606 -3.794382  2.025153
In 24.236077 -2.976114  3.988249
P 24.177549 -0.499774  4.487016
In 20.697420 -2.970600  1.551928
P 20.943299 -0.482411  1.018240
In 22.467293  0.331261  2.852596
P 22.664644  2.907427  2.576402
In 26.501894  0.380118  4.166870
P 26.373809  2.935514  0.207662
In 21.449055  3.781499  0.498953
P 21.560942  6.354636  0.275018
In 25.106537  3.726985  2.320245
P 10.723383 -14.130472  2.212890
In  9.533118 -13.241780  4.301380
P  9.630883 -10.665552  4.191215
In 20.383652  7.246967  2.354587
P 20.485626  9.813433  2.194823
In  8.450993 -9.769318  2.103251
P  8.555570 -7.196901  1.990304
In 12.048964 -9.809896  4.082635
P 12.166142 -7.250878  3.901971
In  7.368065 -6.311261  4.080073
P  7.455594 -3.723774  4.033611
In 10.985048 -6.371059  1.804174
P 11.099779 -3.814252  1.584942
In  2.517485 -2.970553  4.117211
P  2.396577 -0.418580  0.041047
In 13.348195 17.457459  2.023923
P 27.744173 -0.437173  2.083821
In  1.203397  0.440014  2.135222
P 15.544382 -17.453629  2.190086
In  4.750984  0.483490  0.028011
P  4.685859  3.028516  0.094836
In 14.316658 -16.621920  4.281174
P 14.360919 -14.068699  4.213487
In  3.475798  3.868679  2.177863
P 17.983226 -14.028276  2.112323
In 16.768126 -13.197569  4.188853
P 16.849603 -10.650610  4.057322
In 13.134825 -13.242983  2.123575
P 13.236703 -10.680063  2.003763
In 15.648281 -9.808844  1.958090
P 15.763288 -7.259058  1.765609
In 19.253638 -9.774389  4.068937
P 19.355877 -7.239127  3.873674
In 14.584258 -6.391827  3.834096
P 14.716832 -3.841984  3.600792
In 18.170276 -6.387665  1.764868
P 18.288541 -3.847223  1.534070
%ENDBLOCK POSITIONS_ABS

KPOINT_MP_GRID: 2 2 8
KPOINT_MP_OFFSET: 0.25 0.25 0.0625
