# written by ASE

%BLOCK LATTICE_CART
 5.909102 -0.000004 -0.000004
-0.000004  5.900841  0.004127
-0.000004  0.004127  5.900841
%ENDBLOCK LATTICE_CART

%BLOCK POSITIONS_ABS
P  1.477272  1.478304  4.426661
P  4.431825  1.476239  1.476239
P  1.477272  4.426661  1.478304
P  4.431821  4.428723  4.428723
In  0.000000  0.000000  0.000000
In  2.954549  0.002061  2.950418
In -0.000004  2.952484  2.952484
In  2.954549  2.950419  0.002061
%ENDBLOCK POSITIONS_ABS

FIX_ALL_CELL: TRUE
KPOINT_MP_GRID: 6 6 6
KPOINT_MP_OFFSET: 0.08333333333333333 0.08333333333333333 0.08333333333333333
