#######################################################
#CASTEP cell file: /home/eng/phrbqc/GitHub/InPDislocs/Devel/Data_Devel/EOS/CASTEP_Files/WZ_EOS_0.7898/WZ_EOS_0.7898.cell
#Created using the Atomic Simulation Environment (ASE)#
#######################################################

%BLOCK LATTICE_CART
 3.289277 -0.000034  0.000000
 1.644609  2.848614 -0.000000
 0.000000 -0.000000  5.401704
%ENDBLOCK LATTICE_CART

%BLOCK POSITIONS_ABS
P  1.644611  0.949520 -0.000070
P  3.289273  1.899066  2.700782
In  1.644621  0.949526  2.022630
In  3.289263  1.899060  4.723483
%ENDBLOCK POSITIONS_ABS

KPOINT_MP_GRID: 13 13 7
KPOINT_MP_OFFSET: 0.038462 0.038462 0.071429
