#######################################################
#CASTEP cell file: /home/eng/phrbqc/GitHub/InPDislocs/Devel/Data_Devel/EOS/CASTEP_Files/ZB_EOS_0.9763/ZB_EOS_0.9763.cell
#Created using the Atomic Simulation Environment (ASE)#
#######################################################

%BLOCK LATTICE_CART
 5.761334  0.000000 -0.000000
 0.000000  5.761334 -0.000000
-0.000000 -0.000000  5.761334
%ENDBLOCK LATTICE_CART

%BLOCK POSITIONS_ABS
P  1.440333  1.440333  4.321000
P  4.321000  1.440333  1.440333
P  1.440333  4.321000  1.440333
P  4.321000  4.321000  4.321000
In  0.000000  0.000000  0.000000
In  2.880667  0.000000  2.880667
In  0.000000  2.880667  2.880667
In  2.880667  2.880667  0.000000
%ENDBLOCK POSITIONS_ABS

KPOINT_MP_GRID: 7 7 7
KPOINT_MP_OFFSET: 0.071429 0.071429 0.071429
