#######################################################
#CASTEP cell file: /home/eng/phrbqc/GitHub/InPDislocs/Devel/Data_Devel/EOS/CASTEP_Files/WZ_EOS_0.7525/WZ_EOS_0.7525.cell
#Created using the Atomic Simulation Environment (ASE)#
#######################################################

%BLOCK LATTICE_CART
 3.133889 -0.000033  0.000000
 1.566916  2.714043 -0.000000
 0.000000 -0.000000  5.146522
%ENDBLOCK LATTICE_CART

%BLOCK POSITIONS_ABS
P  1.566918  0.904664 -0.000067
P  3.133884  1.809352  2.573194
In  1.566927  0.904669  1.927079
In  3.133875  1.809346  4.500341
%ENDBLOCK POSITIONS_ABS

KPOINT_MP_GRID: 13 13 7
KPOINT_MP_OFFSET: 0.038462 0.038462 0.071429
