# written by ASE

%BLOCK LATTICE_CART
 5.901274  0.000000 -0.000000
 0.000000  5.901274 -0.000000
-0.000000 -0.000000  5.901274
%ENDBLOCK LATTICE_CART

%BLOCK POSITIONS_ABS
P  1.524990  1.461492  4.490724
P  4.578258  1.451903  1.451905
P  1.633240  4.502699  1.428371
P  4.480211  4.379613  4.379382
In  0.024196 -0.191328 -0.172492
In  2.894408 -0.101283  2.982062
In -0.090802  2.809406  3.097202
In  2.928059  2.957390 -0.142475
%ENDBLOCK POSITIONS_ABS

KPOINT_MP_GRID: 7 7 7
KPOINT_MP_OFFSET: 0.07142857142857142 0.07142857142857142 0.07142857142857142
