#######################################################
#CASTEP cell file: /home/eng/phrbqc/GitHub/InPDislocs/Devel/Data_Devel/EOS/CASTEP_Files/WZ_EOS_1.0776/WZ_EOS_1.0776.cell
#Created using the Atomic Simulation Environment (ASE)#
#######################################################

%BLOCK LATTICE_CART
 4.487991 -0.000047  0.000000
 2.243955  3.886737 -0.000000
 0.000000 -0.000000  7.370251
%ENDBLOCK LATTICE_CART

%BLOCK POSITIONS_ABS
P  2.243957  1.295554 -0.000096
P  4.487984  2.591143  3.685030
In  2.243971  1.295562  2.759739
In  4.487971  2.591135  6.444864
%ENDBLOCK POSITIONS_ABS

KPOINT_MP_GRID: 9 9 5
KPOINT_MP_OFFSET: 0.055556 0.055556 0.1
