#######################################################
#CASTEP cell file: /home/eng/phrbqc/GitHub/InPDislocs/Devel/Data_Devel/EOS/CASTEP_Files/ZB_EOS_1.0136/ZB_EOS_1.0136.cell
#Created using the Atomic Simulation Environment (ASE)#
#######################################################

%BLOCK LATTICE_CART
 5.981501  0.000000 -0.000000
 0.000000  5.981501 -0.000000
-0.000000 -0.000000  5.981501
%ENDBLOCK LATTICE_CART

%BLOCK POSITIONS_ABS
P  1.495375  1.495375  4.486125
P  4.486125  1.495375  1.495375
P  1.495375  4.486125  1.495375
P  4.486125  4.486125  4.486125
In  0.000000  0.000000  0.000000
In  2.990750  0.000000  2.990750
In  0.000000  2.990750  2.990750
In  2.990750  2.990750  0.000000
%ENDBLOCK POSITIONS_ABS

KPOINT_MP_GRID: 7 7 7
KPOINT_MP_OFFSET: 0.071429 0.071429 0.071429
