#######################################################
#CASTEP cell file: /home/eng/phrbqc/GitHub/InPDislocs/Devel/Data_Devel/EOS/CASTEP_Files/WZ_EOS_0.9604/WZ_EOS_0.9604.cell
#Created using the Atomic Simulation Environment (ASE)#
#######################################################

%BLOCK LATTICE_CART
 3.999626 -0.000042  0.000000
 1.999777  3.463798 -0.000000
 0.000000 -0.000000  6.568251
%ENDBLOCK LATTICE_CART

%BLOCK POSITIONS_ABS
P  1.999779  1.154577 -0.000085
P  3.999620  2.309186  3.284040
In  1.999791  1.154584  2.459435
In  3.999609  2.309179  5.743561
%ENDBLOCK POSITIONS_ABS

KPOINT_MP_GRID: 11 11 7
KPOINT_MP_OFFSET: 0.045455 0.045455 0.071429
