#######################################################
#CASTEP cell file: /home/eng/phrbqc/GitHub/InPDislocs/Devel/Data_Devel/EOS/CASTEP_Files/WZ_EOS_0.8484/WZ_EOS_0.8484.cell
#Created using the Atomic Simulation Environment (ASE)#
#######################################################

%BLOCK LATTICE_CART
 3.533460 -0.000037  0.000000
 1.766698  3.060084 -0.000000
 0.000000 -0.000000  5.802705
%ENDBLOCK LATTICE_CART

%BLOCK POSITIONS_ABS
P  1.766700  1.020009 -0.000075
P  3.533455  2.040044  2.901277
In  1.766711  1.020015  2.172782
In  3.533444  2.040038  5.074134
%ENDBLOCK POSITIONS_ABS

KPOINT_MP_GRID: 11 11 7
KPOINT_MP_OFFSET: 0.045455 0.045455 0.071429
