# written by ASE

%BLOCK LATTICE_CART
11.802550  0.000000  0.000000
 0.000000 11.802550  0.000000
 0.000000  0.000000 11.802550
%ENDBLOCK LATTICE_CART

%BLOCK POSITIONS_ABS
P  1.537991  1.412647  4.482723
P  4.530569  1.506630  1.516901
P  1.537991  4.472452  1.422917
P  4.430552  4.453107  4.463378
P  1.444007  1.506630 10.232889
P  4.448028  1.454560  7.363929
P  1.480037  4.428343  7.371391
P  4.603419  4.542236 10.160039
P  1.480037  7.361121  4.438613
P  4.448028  7.353658  1.464830
P  1.444007 10.222618  1.516901
P  4.603419 10.149769  4.552507
P  1.496078  7.353658 10.315430
P  4.462218  7.384525  7.394795
P  1.496078 10.305160  7.363929
P  4.382839 10.370349 10.380620
P  7.392067  1.470601  4.438613
P 10.280735  1.412647  1.422917
P  7.392067  4.428343  1.480871
P 10.426149  4.327038  4.337309
P  7.399529  1.454560 10.315430
P 10.324845  1.470601  7.371391
P  7.433105  4.407485  7.330353
P 10.300080  4.453107 10.332907
P  7.433105  7.320082  4.417755
P 10.324845  7.361121  1.480871
P  7.399529 10.305160  1.464830
P 10.300080 10.322636  4.463378
P  7.368663  7.384525 10.301240
P 10.345703  7.320082  7.330353
P  7.368663 10.290969  7.394795
P 10.210951 10.149769 10.160039
In -0.275421 -0.187862 -0.177591
In  3.138499 -0.187862  3.236329
In  0.115382  2.835256  2.845526
In  3.138499  3.226058 -0.177591
In -0.002816 -0.016732  5.927971
In  2.945578  0.005059  8.829223
In -0.052778  3.003415  8.823671
In  2.967369  2.953453  5.927971
In -0.002816  5.917701 -0.006461
In  2.967369  5.917701  2.963724
In -0.052778  8.813400  3.013686
In  2.945578  8.818953  0.015330
In  0.002873  5.841541  5.851812
In  2.954685  5.926872  8.797923
In  0.047155  8.769491  8.779761
In  2.954685  8.787652  5.937142
In  5.934235  0.005059  0.015330
In  8.835487 -0.016732  2.963724
In  5.939787  3.003415  3.013686
In  8.835487  2.953453 -0.006461
In  5.965535 -0.004048  5.937142
In  8.826316 -0.004048  8.797923
In  5.983697  2.903482  8.779761
In  8.911646  2.947765  5.851812
In  5.965535  5.926872  0.006223
In  8.911646  5.841541  2.958035
In  5.983697  8.769491  2.913753
In  8.826316  8.787652  0.006223
In  5.933110  5.909961  5.920231
In  8.843227  5.909961  8.830348
In  5.860303  8.892885  8.903155
In  8.843227  8.820077  5.920231
In  1.889076  1.061562  1.071832
%ENDBLOCK POSITIONS_ABS

KPOINT_MP_GRID: 4 4 4
KPOINT_MP_OFFSET: 0.125 0.125 0.125
