# written by ASE

%BLOCK LATTICE_CART
11.802550  0.000000  0.000000
 0.000000 11.802550  0.000000
 0.000000  0.000000 11.802550
%ENDBLOCK LATTICE_CART

%BLOCK POSITIONS_ABS
P  1.536147  1.414490  4.484140
P  4.537846  1.507234  1.517505
P  1.536147  4.473869  1.424761
P  4.430913  4.453760  4.464031
P  1.443403  1.507234 10.225612
P  4.449122  1.455459  7.363271
P  1.480036  4.428786  7.370256
P  4.602237  4.540433 10.161221
P  1.480036  7.359985  4.439056
P  4.449122  7.353001  1.465730
P  1.443403 10.215341  1.517505
P  4.602237 10.150950  4.550704
P  1.495179  7.353001 10.314336
P  4.461512  7.384741  7.395012
P  1.495179 10.304065  7.363271
P  4.383334 10.369854 10.380125
P  7.393203  1.470602  4.439056
P 10.279319  1.414490  1.424761
P  7.393203  4.428786  1.480872
P 10.427975  4.325212  4.335483
P  7.400187  1.455459 10.314336
P 10.324402  1.470602  7.370256
P  7.433844  4.407863  7.329615
P 10.299428  4.453760 10.332545
P  7.433844  7.319344  4.418133
P 10.324402  7.359985  1.480872
P  7.400187 10.304065  1.465730
P 10.299428 10.322274  4.464031
P  7.368447  7.384741 10.301946
P 10.345325  7.319344  7.329615
P  7.368447 10.291676  7.395012
P 10.212755 10.150951 10.161221
In -0.275431 -0.185265 -0.174994
In  3.135902 -0.185265  3.236339
In  0.117272  2.833366  2.843636
In  3.135903  3.226068 -0.174994
In -0.003328 -0.017338  5.928292
In  2.947145  0.003492  8.826306
In -0.054830  3.005468  8.820912
In  2.967975  2.953966  5.928292
In -0.003328  5.918021 -0.007067
In  2.967975  5.918021  2.964236
In -0.054830  8.810642  3.015738
In  2.947145  8.816035  0.013763
In  0.002796  5.840604  5.850875
In  2.954359  5.926126  8.798532
In  0.045865  8.769102  8.779373
In  2.954359  8.788261  5.936397
In  5.937152  0.003492  0.013763
In  8.835166 -0.017338  2.964236
In  5.942546  3.005468  3.015738
In  8.835166  2.953966 -0.007067
In  5.964927 -0.003722  5.936397
In  8.827061 -0.003722  8.798532
In  5.984085  2.904773  8.779373
In  8.912583  2.947842  5.850875
In  5.964927  5.926126  0.006549
In  8.912583  5.840604  2.958113
In  5.984085  8.769103  2.915044
In  8.827061  8.788261  0.006549
In  5.932875  5.910618  5.920889
In  8.842569  5.910618  8.830583
In  5.860531  8.892656  8.902927
In  8.842569  8.820312  5.920889
In  1.883761  1.066876  1.077147
%ENDBLOCK POSITIONS_ABS

KPOINT_MP_GRID: 4 4 4
KPOINT_MP_OFFSET: 0.125 0.125 0.125
