# written by ASE

%BLOCK LATTICE_CART
11.801682 -0.000008 -0.000008
-0.000008 11.801682 -0.000008
-0.000008 -0.000008 11.801682
%ENDBLOCK LATTICE_CART

%BLOCK POSITIONS_ABS
P  1.454619  1.404468  4.371671
P  4.245319  1.188844  1.187682
P  1.454619  4.372833  1.403306
P  4.082411  4.614649  4.613486
P  1.412352  1.395358 10.224908
P  4.402843  1.424942  7.319034
P  1.390543  4.399506  7.381414
P  4.400959  4.357972 10.263524
P  1.390543  7.382576  4.398344
P  4.402843  7.320196  1.423780
P  1.412352 10.226070  1.394195
P  4.400959 10.264686  4.356810
P  1.447077  7.321829 10.266544
P  4.418603  7.298741  7.297579
P  1.447077 10.267706  7.320667
P  4.414447 10.261429 10.260267
P  7.551077  1.320280  4.444121
P 10.335761  1.414430  1.413268
P  7.551077  4.445283  1.319118
P 10.334583  4.371406  4.370244
P  7.375993  1.419362 10.251347
P 10.317093  1.387143  7.338868
P  7.377390  4.356329  7.328438
P 10.311947  4.392205 10.238153
P  7.377390  7.329600  4.355167
P 10.317093  7.340031  1.385981
P  7.375993 10.252509  1.418200
P 10.311947 10.239315  4.391043
P  7.310719  7.306211 10.275461
P 10.282806  7.331528  7.330366
P  7.310719 10.276623  7.305048
P 10.287153 10.258075 10.256913
In -0.027941 -0.075308 -0.076470
In  2.878188 -0.122096  2.880501
In  0.011674  2.895519  2.894357
In  2.878188  2.881663 -0.123258
In -0.024187 -0.059139  5.830210
In  2.932740 -0.074906  8.791370
In -0.053483  2.887022  8.798415
In  2.819171  2.879035  5.955905
In -0.024187  5.831372 -0.060301
In  2.819171  5.957067  2.877873
In -0.053483  8.799577  2.885860
In  2.932740  8.792532 -0.076069
In -0.040036  5.865166  5.864004
In  2.933248  5.866334  8.798890
In -0.024241  8.793436  8.792274
In  2.933248  8.800053  5.865171
In  5.945620 -0.095502 -0.096664
In  8.916434 -0.127200  2.856359
In  6.420795  2.804675  2.803512
In  8.916434  2.857521 -0.128363
In  5.850505 -0.032397  5.808767
In  8.812259 -0.083670  8.775854
In  5.882400  2.891921  8.793539
In  8.912354  2.917477  5.898833
In  5.850505  5.809930 -0.033559
In  8.912354  5.899995  2.916315
In  5.882400  8.794701  2.890759
In  8.812259  8.777017 -0.084832
In  5.942383  5.836117  5.834955
In  8.810495  5.866138  8.803762
In  5.846655  8.783125  8.781963
In  8.810495  8.804924  5.864976
P  4.061397  3.025842  3.024680
%ENDBLOCK POSITIONS_ABS

KPOINT_MP_GRID: 4 4 4
KPOINT_MP_OFFSET: 0.125 0.125 0.125
