# written by ASE

%BLOCK LATTICE_CART
11.801682 -0.000008 -0.000008
-0.000008 11.801682 -0.000008
-0.000008 -0.000008 11.801682
%ENDBLOCK LATTICE_CART

%BLOCK POSITIONS_ABS
P  1.453813  1.405219  4.371406
P  4.242151  1.189611  1.188449
P  1.453813  4.372568  1.404056
P  4.078461  4.614405  4.613242
P  1.413527  1.394847 10.224126
P  4.403590  1.425560  7.317918
P  1.392037  4.399352  7.382179
P  4.401266  4.357345 10.264600
P  1.392037  7.383341  4.398190
P  4.403590  7.319080  1.424398
P  1.413527 10.225289  1.393685
P  4.401266 10.265762  4.356183
P  1.447029  7.321988 10.266601
P  4.418774  7.298560  7.297398
P  1.447029 10.267764  7.320826
P  4.414707 10.261736 10.260574
P  7.550790  1.320469  4.443528
P 10.334965  1.413583  1.412421
P  7.550790  4.444690  1.319307
P 10.334699  4.372049  4.370887
P  7.375486  1.419294 10.252756
P 10.317153  1.386803  7.339067
P  7.376726  4.356344  7.327833
P 10.312169  4.392370 10.238022
P  7.376726  7.328996  4.355182
P 10.317153  7.340229  1.385641
P  7.375486 10.253918  1.418132
P 10.312169 10.239184  4.391208
P  7.310636  7.305526 10.276198
P 10.283657  7.330860  7.329698
P  7.310636 10.277360  7.304364
P 10.287494 10.258372 10.257210
In -0.026385 -0.075460 -0.076622
In  2.877259 -0.122027  2.880291
In  0.007938  2.895146  2.893984
In  2.877259  2.881453 -0.123190
In -0.023246 -0.058825  5.829892
In  2.933759 -0.075005  8.790442
In -0.053001  2.886920  8.798421
In  2.819283  2.878163  5.955185
In -0.023246  5.831054 -0.059987
In  2.819283  5.956347  2.877001
In -0.053001  8.799584  2.885758
In  2.933759  8.791604 -0.076167
In -0.037204  5.864722  5.863560
In  2.933867  5.866515  8.799740
In -0.024868  8.793384  8.792222
In  2.933867  8.800902  5.865352
In  5.943416 -0.094154 -0.095316
In  8.916382 -0.127387  2.856552
In  6.420106  2.805616  2.804453
In  8.916382  2.857714 -0.128549
In  5.850524 -0.031432  5.807611
In  8.812158 -0.083631  8.776593
In  5.883382  2.891576  8.794569
In  8.912579  2.917280  5.899027
In  5.850524  5.808773 -0.032594
In  8.912579  5.900189  2.916118
In  5.883382  8.795731  2.890414
In  8.812158  8.777755 -0.084793
In  5.940406  5.834961  5.833799
In  8.810690  5.866192  8.803073
In  5.847172  8.783227  8.782065
In  8.810690  8.804236  5.865030
P  4.061661  3.026481  3.025319
%ENDBLOCK POSITIONS_ABS

KPOINT_MP_GRID: 4 4 4
KPOINT_MP_OFFSET: 0.125 0.125 0.125
