# written by ASE

%BLOCK LATTICE_CART
11.801682 -0.000008 -0.000008
-0.000008 11.801682 -0.000008
-0.000008 -0.000008 11.801682
%ENDBLOCK LATTICE_CART

%BLOCK POSITIONS_ABS
P  1.503520  1.222292  4.226275
P  4.226275  1.222294  1.503521
P  1.491503  4.412746  1.491503
In  0.082842 -0.016159  0.082842
In  4.517111  4.081997  4.517114
In  0.036107  2.918294  3.008523
In  3.008523  2.918295  0.036106
P  1.483197  1.479654 10.346383
P  4.396232  1.473494  7.405116
P  1.438457  4.414891  7.386518
P  4.432179  4.444659 10.322664
In -0.008659  0.014745  5.866277
In  2.961207 -0.030676  8.904049
In -0.010002  2.938638  8.883192
In  2.605191  2.623228  5.972179
P  1.480468  7.423116  4.449885
P  4.449885  7.423115  1.480468
P  1.616423 10.461353  1.616423
P  4.300528 10.552797  4.300527
In  0.019485  5.900675  0.019485
In  2.923530  5.979438  2.923529
In  0.069193  8.909883  2.904990
In  2.904990  8.909883  0.069192
P  1.483372  7.388344 10.343421
P  4.388013  7.449717  7.369529
P  1.467015 10.355984  7.380030
P  4.433272 10.286625 10.343975
In -0.005591  5.929690  5.902052
In  2.948828  5.914865  8.840324
In  0.014661  8.872904  8.864635
In  2.990734  8.994226  5.820710
P  7.405116  1.473495  4.396232
P 10.346383  1.479654  1.483197
P  7.386519  4.414892  1.438457
P 10.322665  4.444659  4.432178
In  5.866277  0.014745 -0.008658
In  8.904048 -0.030675  2.961207
In  5.972180  2.623231  2.605192
In  8.883192  2.938638 -0.010002
P  7.373997  1.488573 10.314315
P 10.314315  1.488573  7.373997
P  7.390043  4.476781  7.390042
P 10.343298  4.431801 10.343298
In  5.865530  0.022000  5.865530
In  8.859342 -0.006434  8.859342
In  5.899523  2.978485  8.835759
In  8.835759  2.978486  5.899523
P  7.369530  7.449717  4.388013
P 10.343421  7.388344  1.483371
P  7.380030 10.355984  1.467015
P 10.343974 10.286625  4.433272
In  5.902052  5.929690 -0.005592
In  8.840326  5.914866  2.948827
In  5.820711  8.994225  2.990733
In  8.864635  8.872904  0.014661
P  7.392992  7.397300 10.327017
P 10.327017  7.397300  7.392991
P  7.367001 10.347658  7.367001
P 10.357323 10.352444 10.357323
In  5.938466  6.032327  5.938466
In  8.878628  5.911463  8.878627
In  5.906157  8.863953  8.847309
In  8.847309  8.863953  5.906156
%ENDBLOCK POSITIONS_ABS

FIX_ALL_CELL: TRUE
KPOINT_MP_GRID: 4 4 4
KPOINT_MP_OFFSET: 0.125 0.125 0.125
