# written by ASE

%BLOCK LATTICE_CART
11.801682 -0.000008 -0.000008
-0.000008 11.801682 -0.000008
-0.000008 -0.000008 11.801682
%ENDBLOCK LATTICE_CART

%BLOCK POSITIONS_ABS
P  1.585732  1.585732  4.536154
P  4.424506  1.476328  1.486121
P  1.476328  4.424506  1.486121
P  4.315100  4.315100  4.536145
In  0.006850  0.006850  0.000326
In  2.919903  0.057298  3.007721
In  0.057298  2.919903  3.007721
In  2.950419  2.950419 -0.000004
P  1.476324  1.476324 10.315553
P  4.315100  1.585723  7.265523
P  1.585723  4.315100  7.265523
P  4.424498  4.424498 10.315549
In  0.057298  0.057298  5.870325
In  2.980933  0.057292  8.793960
In  0.057292  2.980933  8.793960
In  5.843533  5.843533  5.870316
P  1.476324  7.365131  4.426746
P  4.417605  7.364160  1.487088
P  1.483222 10.338357  1.487090
P  4.424498 10.337380  4.426742
In  0.006846  5.893993 -0.000328
In  2.980933  5.843538  3.007714
In  0.006842  8.851586  2.957264
In  2.950415  8.851260 -0.000007
P  1.483218  7.364156 10.314578
P  4.424498  7.365127  7.374920
P  1.476320 10.337380  7.374920
P  4.417598 10.338348 10.314575
In  0.057292  5.843538  5.931355
In  2.919893  5.843533  8.793955
In  0.006838  8.850931  8.844407
In  2.950411  8.851256  5.900833
P  7.365131  1.476324  4.426746
P 10.338357  1.483222  1.487090
P  7.364160  4.417605  1.487088
P 10.337381  4.424498  4.426743
In  5.893993  0.006846 -0.000328
In  8.851586  0.006842  2.957265
In  5.843538  2.980933  3.007715
In  8.851260  2.950415 -0.000007
P  7.364156  1.483218 10.314578
P 10.337381  1.476320  7.374921
P  7.365127  4.424498  7.374920
P 10.338348  4.417597 10.314575
In  5.843538  0.057292  5.931355
In  8.850932  0.006838  8.844408
In  5.843533  2.919893  8.793955
In  8.851256  2.950411  5.900834
P  7.364156  7.364156  4.433640
P 10.327392  7.375117  1.476125
P  7.375117 10.327392  1.476125
P 10.338349 10.338349  4.433637
In  5.893988  5.893988  0.000317
In  8.850932  5.893985  2.957260
In  5.893985  8.850931  2.957260
In  8.851256  8.851256 -0.000011
P  7.375113  7.375113 10.325535
P 10.338348  7.364152  7.368020
P  7.364153 10.338348  7.368020
P 10.327384 10.327384 10.325532
In  8.851576  5.893981  8.844403
In  5.893981  8.851576  8.844403
In  8.851253  8.851253  5.900830
%ENDBLOCK POSITIONS_ABS

KPOINT_MP_GRID: 4 4 4
KPOINT_MP_OFFSET: 0.125 0.125 0.125
