# written by ASE

%BLOCK LATTICE_CART
11.801682 -0.000008 -0.000008
-0.000008 11.801682 -0.000008
-0.000008 -0.000008 11.801682
%ENDBLOCK LATTICE_CART

%BLOCK POSITIONS_ABS
P  1.585293  1.585293  4.535716
P  4.424222  1.476612  1.486879
P  1.476612  4.424222  1.486879
P  4.315539  4.315539  4.535707
In  0.007327  0.007327 -0.000128
In  2.919259  0.057293  3.007715
In  0.057293  2.919259  3.007715
In  2.950419  2.950419 -0.000004
P  1.476608  1.476608 10.314795
P  4.315539  1.585284  7.265961
P  1.585285  4.315539  7.265961
P  4.424214  4.424213 10.314791
In  0.057293  0.057293  5.869681
In  2.981577  0.057286  8.793966
In  0.057287  2.981576  8.793966
In  5.843538  5.843538  5.869672
P  1.476608  7.364373  4.427030
P  4.417719  7.364340  1.486909
P  1.483108 10.338177  1.486910
P  4.424214 10.338138  4.427027
In  0.007323  5.893516  0.000126
In  2.981577  5.843544  3.007709
In  0.007319  8.851131  2.957742
In  2.950415  8.851260 -0.000007
P  1.483104  7.364336 10.314758
P  4.424214  7.364368  7.374636
P  1.476605 10.338138  7.374636
P  4.417712 10.338168 10.314754
In  0.057287  5.843543  5.931999
In  2.919249  5.843538  8.793960
In  0.007315  8.851386  8.843930
In  2.950411  8.851256  5.900833
P  7.364373  1.476608  4.427030
P 10.338177  1.483108  1.486910
P  7.364340  4.417719  1.486909
P 10.338138  4.424214  4.427027
In  5.893516  0.007323  0.000126
In  8.851131  0.007319  2.957742
In  5.843544  2.981577  3.007709
In  8.851260  2.950415 -0.000007
P  7.364336  1.483104 10.314758
P 10.338138  1.476604  7.374637
P  7.364369  4.424214  7.374636
P 10.338168  4.417711 10.314754
In  5.843544  0.057287  5.931999
In  8.851386  0.007315  8.843930
In  5.843538  2.919249  8.793961
In  8.851256  2.950411  5.900834
P  7.364336  7.364336  4.433526
P 10.327597  7.374912  1.476330
P  7.374912 10.327597  1.476330
P 10.338170 10.338170  4.433523
In  5.893511  5.893511 -0.000137
In  8.851386  5.893508  2.957737
In  5.893508  8.851386  2.957737
In  8.851256  8.851256 -0.000011
P  7.374907  7.374907 10.325330
P 10.338168  7.364332  7.368134
P  7.364332 10.338168  7.368134
P 10.327589 10.327589 10.325326
In  8.851122  5.893504  8.843926
In  5.893504  8.851122  8.843926
In  8.851253  8.851253  5.900830
%ENDBLOCK POSITIONS_ABS

KPOINT_MP_GRID: 4 4 4
KPOINT_MP_OFFSET: 0.125 0.125 0.125
