# written by ASE

%BLOCK LATTICE_CART
11.801682 -0.000008 -0.000008
-0.000008 11.801682 -0.000008
-0.000008 -0.000008 11.801682
%ENDBLOCK LATTICE_CART

%BLOCK POSITIONS_ABS
P  1.379496  1.474554  4.472350
P  4.853361  1.135866  2.477178
P  1.470183  4.411859  1.451862
P  4.389361  4.518496  4.462948
P  1.383460  1.475954 10.178661
P  4.409814  1.464057  7.329659
P  1.458855  4.411926  7.339454
P  4.451140  4.462045 10.255945
P  1.432365  7.351958  4.384577
P  4.407537  7.396213  1.440900
P  1.439206 10.287912  1.472090
P  4.403709 10.185121  4.536229
P  1.451959  7.365521 10.321191
P  4.400695  7.306955  7.378922
P  1.424538 10.281516  7.344312
P  4.396547 10.220732 10.159715
P  7.437000  1.511892  4.474790
P 10.317041  1.460857  1.441887
P  7.406518  4.474664  1.413175
P 10.321652  4.415523  4.399110
P  7.368603  1.481249 10.277555
P 10.280816  1.427284  7.375570
P  7.383572  4.425896  7.348983
P 10.316688  4.416935 10.297104
P  7.360365  7.379545  4.394533
P 10.301158  7.349534  1.441178
P  7.336433 10.328844  1.427530
P 10.278755 10.314583  4.370682
P  7.378226  7.375898 10.294405
P 10.309851  7.362987  7.347298
P  7.365912 10.318094  7.332461
P 10.325482 10.315667 10.331546
In  0.028135  0.014260 -0.029896
In  2.774533 -0.200074  3.202033
In -0.021815  2.932301  2.915451
In  2.814167  3.074904 -0.233466
In -0.078416 -0.047302  5.901484
In  2.909472 -0.020119  8.780917
In -0.070619  2.951627  8.760545
In  2.944815  2.937627  5.856680
In -0.016508  5.886144 -0.016591
In  2.938343  5.919277  2.905942
In -0.053421  8.820601  2.911768
In  2.941252  8.870848 -0.042764
In -0.013734  5.884497  5.875419
In  2.901269  5.887640  8.837037
In -0.032812  8.828854  8.845573
In  2.892977  8.734783  5.946935
In  5.915074 -0.124692 -0.208620
In  8.800613  0.021753  2.916025
In  6.055060  3.197539  3.110676
In  8.855778  2.929955 -0.033951
In  5.892096  0.006287  5.845293
In  8.829291 -0.046807  8.848936
In  5.893139  2.941603  8.791501
In  8.897664  2.947729  5.922925
In  5.881872  5.935851 -0.030147
In  8.855737  5.913524  2.946010
In  5.874834  8.863586  2.928745
In  8.837095  8.846907 -0.007206
In  5.913779  5.927298  5.906194
In  8.843097  5.892746  8.834186
In  5.914845  8.785520  8.754955
In  8.839436  8.844087  5.870749
P  3.799924  0.978126  0.659703
%ENDBLOCK POSITIONS_ABS

KPOINT_MP_GRID: 4 4 4
KPOINT_MP_OFFSET: 0.125 0.125 0.125
