# written by ASE

%BLOCK LATTICE_CART
11.801682 -0.000008 -0.000008
-0.000008 11.801682 -0.000008
-0.000008 -0.000008 11.801682
%ENDBLOCK LATTICE_CART

%BLOCK POSITIONS_ABS
P  1.380214  1.474082  4.471846
P  4.851807  1.138565  2.474110
P  1.469652  4.413442  1.451851
P  4.388201  4.517649  4.462518
P  1.384983  1.477142 10.180807
P  4.409343  1.463598  7.330628
P  1.458329  4.411933  7.340312
P  4.452445  4.462180 10.256842
P  1.432297  7.352275  4.384836
P  4.407680  7.396381  1.441719
P  1.438148 10.288716  1.471591
P  4.403698 10.185639  4.537282
P  1.452186  7.366318 10.321222
P  4.400408  7.305639  7.378859
P  1.424305 10.281306  7.344392
P  4.395779 10.219426 10.158770
P  7.435687  1.511840  4.474354
P 10.317093  1.460850  1.442151
P  7.406942  4.477144  1.412633
P 10.322332  4.414439  4.398925
P  7.369055  1.481485 10.276972
P 10.281697  1.426859  7.375303
P  7.383745  4.425737  7.348033
P 10.315746  4.415702 10.297237
P  7.360286  7.379884  4.394575
P 10.301064  7.349789  1.440969
P  7.336064 10.329991  1.427515
P 10.278750 10.313749  4.370820
P  7.378638  7.376786 10.293801
P 10.309628  7.362212  7.347347
P  7.366536 10.317550  7.333055
P 10.325759 10.315318 10.331417
In  0.027445  0.015088 -0.030889
In  2.775272 -0.200671  3.201238
In -0.019953  2.931677  2.914645
In  2.816595  3.076197 -0.230626
In -0.078218 -0.047813  5.900577
In  2.908122 -0.020206  8.781633
In -0.070099  2.950659  8.761790
In  2.943873  2.937118  5.857934
In -0.017445  5.886509 -0.018126
In  2.938005  5.919629  2.906327
In -0.053349  8.820286  2.911563
In  2.941692  8.871541 -0.041054
In -0.013758  5.883975  5.875160
In  2.901203  5.887031  8.838325
In -0.033102  8.828400  8.845225
In  2.893039  8.734300  5.947213
In  5.914814 -0.126146 -0.212407
In  8.801822  0.021910  2.916851
In  6.054945  3.199659  3.108869
In  8.854048  2.929523 -0.032360
In  5.892919  0.005643  5.847461
In  8.830228 -0.046858  8.849057
In  5.893521  2.941861  8.790641
In  8.897788  2.946738  5.922320
In  5.882267  5.938155 -0.030745
In  8.856817  5.913968  2.946869
In  5.874264  8.864418  2.929069
In  8.836931  8.847275 -0.006942
In  5.913422  5.926881  5.905168
In  8.842786  5.891890  8.834471
In  5.914550  8.784574  8.754188
In  8.839467  8.843581  5.870941
P  3.798861  0.976601  0.659763
%ENDBLOCK POSITIONS_ABS

KPOINT_MP_GRID: 4 4 4
KPOINT_MP_OFFSET: 0.125 0.125 0.125
