# written by ASE

%BLOCK LATTICE_CART
11.801682 -0.000008 -0.000008
-0.000008 11.801682 -0.000008
-0.000008 -0.000008 11.801682
%ENDBLOCK LATTICE_CART

%BLOCK POSITIONS_ABS
P  1.455347  1.415837  4.391638
P  3.982712  1.020201  1.019039
P  1.455347  4.392800  1.414674
P  4.439687  4.566125  4.564963
P  1.377118  1.384611 10.187797
P  4.403719  1.428445  7.324735
P  1.442314  4.377932  7.327705
P  4.404824  4.364491 10.271197
P  1.442314  7.328867  4.376770
P  4.403719  7.325897  1.427282
P  1.377118 10.188959  1.383449
P  4.404824 10.272359  4.363329
P  1.446156  7.316410 10.262280
P  4.395073  7.354969  7.353807
P  1.446156 10.263442  7.315248
P  4.419340 10.275665 10.274503
P  7.502252  1.382691  4.450515
P 10.339961  1.417523  1.416361
P  7.502252  4.451677  1.381529
P 10.340968  4.369236  4.368074
P  7.383652  1.438587 10.262305
P 10.302178  1.402896  7.342758
P  7.381578  4.374367  7.347779
P 10.322072  4.394455 10.259676
P  7.381578  7.348941  4.373205
P 10.302178  7.343920  1.401734
P  7.383652 10.263467  1.437425
P 10.322072 10.260838  4.393293
P  7.320599  7.314779 10.279782
P 10.292668  7.326070  7.324908
P  7.320599 10.280944  7.313617
P 10.282113 10.254938 10.253776
In -0.041547 -0.080063 -0.081225
In  2.786866 -0.197182  2.927501
In  0.023782  2.888733  2.887571
In  2.786866  2.928663 -0.198344
In -0.025130 -0.038157  5.856862
In  2.934057 -0.083030  8.781013
In -0.050515  2.907164  8.769102
In  2.948106  2.925321  5.854339
In -0.025130  5.858024 -0.039319
In  2.948106  5.855501  2.924159
In -0.050515  8.770264  2.906002
In  2.934057  8.782175 -0.084192
In -0.020206  5.857736  5.856574
In  2.927856  5.849331  8.794367
In -0.023335  8.792826  8.791664
In  2.927856  8.795529  5.848169
In  5.966905 -0.077072 -0.078234
In  8.896161 -0.081691  2.880489
In  6.273433  3.131672  3.130510
In  8.896161  2.881651 -0.082854
In  5.861771 -0.023503  5.829017
In  8.814863 -0.073337  8.784323
In  5.881325  2.895279  8.799252
In  8.902854  2.929062  5.900216
In  5.861771  5.830179 -0.024665
In  8.902854  5.901378  2.927900
In  5.881325  8.800415  2.894117
In  8.814863  8.785485 -0.074499
In  5.956788  5.950535  5.949373
In  8.824308  5.865872  8.817728
In  5.858752  8.809962  8.808800
In  8.824308  8.818890  5.864709
P  4.007109  2.530109  2.528947
%ENDBLOCK POSITIONS_ABS

KPOINT_MP_GRID: 4 4 4
KPOINT_MP_OFFSET: 0.125 0.125 0.125
