# written by ASE

%BLOCK LATTICE_CART
11.801682 -0.000008 -0.000008
-0.000008 11.801682 -0.000008
-0.000008 -0.000008 11.801682
%ENDBLOCK LATTICE_CART

%BLOCK POSITIONS_ABS
P  1.454620  1.415620  4.391080
P  3.977781  1.019591  1.018428
P  1.454620  4.392242  1.414458
P  4.440267  4.565995  4.564833
P  1.377288  1.384775 10.186405
P  4.403887  1.429011  7.323601
P  1.443604  4.377933  7.327928
P  4.405576  4.363962 10.271701
P  1.443604  7.329090  4.376770
P  4.403887  7.324764  1.427849
P  1.377288 10.187567  1.383613
P  4.405576 10.272863  4.362800
P  1.445978  7.316097 10.262113
P  4.395116  7.355380  7.354218
P  1.445978 10.263275  7.314935
P  4.419588 10.274837 10.273675
P  7.502657  1.383679  4.450542
P 10.341035  1.417078  1.415916
P  7.502657  4.451704  1.382517
P 10.340709  4.369808  4.368646
P  7.382582  1.438487 10.263002
P 10.301785  1.403140  7.342691
P  7.381714  4.375041  7.346973
P 10.321940  4.394878 10.259707
P  7.381714  7.348136  4.373879
P 10.301785  7.343853  1.401978
P  7.382582 10.264164  1.437325
P 10.321940 10.260869  4.393716
P  7.320724  7.314103 10.280555
P 10.293188  7.325734  7.324571
P  7.320724 10.281717  7.312941
P 10.282330 10.255182 10.254019
In -0.040159 -0.080437 -0.081599
In  2.786702 -0.197059  2.928300
In  0.022680  2.889208  2.888046
In  2.786702  2.929463 -0.198221
In -0.024718 -0.037699  5.856991
In  2.934385 -0.083278  8.780323
In -0.050739  2.907674  8.768521
In  2.948087  2.925296  5.852830
In -0.024718  5.858153 -0.038861
In  2.948087  5.853992  2.924133
In -0.050739  8.769683  2.906512
In  2.934385  8.781485 -0.084440
In -0.018552  5.857696  5.856534
In  2.928684  5.849323  8.795230
In -0.023769  8.792797  8.791634
In  2.928684  8.796392  5.848161
In  5.963894 -0.075574 -0.076736
In  8.896413 -0.081692  2.880367
In  6.272494  3.129756  3.128594
In  8.896413  2.881529 -0.082854
In  5.861921 -0.022193  5.827935
In  8.814823 -0.073051  8.784968
In  5.882440  2.895912  8.797560
In  8.902456  2.929673  5.900248
In  5.861921  5.829098 -0.023355
In  8.902456  5.901410  2.928511
In  5.882440  8.798722  2.894750
In  8.814823  8.786130 -0.074213
In  5.955793  5.950430  5.949268
In  8.824531  5.866226  8.817412
In  5.859986  8.809623  8.808461
In  8.824531  8.818575  5.865064
P  4.005801  2.532243  2.531081
%ENDBLOCK POSITIONS_ABS

KPOINT_MP_GRID: 4 4 4
KPOINT_MP_OFFSET: 0.125 0.125 0.125
