#######################################################
#CASTEP cell file: /home/eng/phrbqc/GitHub/InPDislocs/Devel/Data_Devel/EOS/CASTEP_Files/ZB_EOS_0.9336/ZB_EOS_0.9336.cell
#Created using the Atomic Simulation Environment (ASE)#
#######################################################

%BLOCK LATTICE_CART
 5.509715  0.000000 -0.000000
 0.000000  5.509715 -0.000000
-0.000000 -0.000000  5.509715
%ENDBLOCK LATTICE_CART

%BLOCK POSITIONS_ABS
P  1.377429  1.377429  4.132286
P  4.132286  1.377429  1.377429
P  1.377429  4.132286  1.377429
P  4.132286  4.132286  4.132286
In  0.000000  0.000000  0.000000
In  2.754857  0.000000  2.754857
In  0.000000  2.754857  2.754857
In  2.754857  2.754857  0.000000
%ENDBLOCK POSITIONS_ABS

KPOINT_MP_GRID: 7 7 7
KPOINT_MP_OFFSET: 0.071429 0.071429 0.071429
