#######################################################
#CASTEP cell file: /home/eng/phrbqc/GitHub/InPDislocs/Devel/Data_Devel/EOS/CASTEP_Files/ZB_EOS_0.8057/ZB_EOS_0.8057.cell
#Created using the Atomic Simulation Environment (ASE)#
#######################################################

%BLOCK LATTICE_CART
 4.754857  0.000000 -0.000000
 0.000000  4.754857 -0.000000
-0.000000 -0.000000  4.754857
%ENDBLOCK LATTICE_CART

%BLOCK POSITIONS_ABS
P  1.188714  1.188714  3.566143
P  3.566143  1.188714  1.188714
P  1.188714  3.566143  1.188714
P  3.566143  3.566143  3.566143
In  0.000000  0.000000  0.000000
In  2.377429  0.000000  2.377429
In  0.000000  2.377429  2.377429
In  2.377429  2.377429  0.000000
%ENDBLOCK POSITIONS_ABS

KPOINT_MP_GRID: 9 9 9
KPOINT_MP_OFFSET: 0.055556 0.055556 0.055556
