#######################################################
#CASTEP cell file: /home/eng/phrbqc/GitHub/InPDislocs/Devel/Data_Devel/EOS/CASTEP_Files/ZB_EOS_0.8537/ZB_EOS_0.8537.cell
#Created using the Atomic Simulation Environment (ASE)#
#######################################################

%BLOCK LATTICE_CART
 5.037929  0.000000 -0.000000
 0.000000  5.037929 -0.000000
-0.000000 -0.000000  5.037929
%ENDBLOCK LATTICE_CART

%BLOCK POSITIONS_ABS
P  1.259482  1.259482  3.778447
P  3.778447  1.259482  1.259482
P  1.259482  3.778447  1.259482
P  3.778447  3.778447  3.778447
In  0.000000  0.000000  0.000000
In  2.518964  0.000000  2.518964
In  0.000000  2.518964  2.518964
In  2.518964  2.518964  0.000000
%ENDBLOCK POSITIONS_ABS

KPOINT_MP_GRID: 7 7 7
KPOINT_MP_OFFSET: 0.071429 0.071429 0.071429
