# written by ASE

%BLOCK LATTICE_CART
11.801682 -0.000008 -0.000008
-0.000008 11.801682 -0.000008
-0.000008 -0.000008 11.801682
%ENDBLOCK LATTICE_CART

%BLOCK POSITIONS_ABS
P  1.510881  1.510881  4.426159
P  4.426159  1.510881  1.510881
P  1.510881  4.426159  1.510881
In -0.001257 -0.001257 -0.001257
In  2.947881  0.002704  2.947881
In  0.002704  2.947881  2.947881
In  2.947881  2.947881  0.002704
P  1.476067  1.476066 10.322697
P  4.425097  1.510873  7.340376
P  1.510874  4.425097  7.340376
P  4.425620  4.425620 10.326464
In  0.016304  0.016304  5.895584
In  2.955672  0.016298  8.834955
In  0.016299  2.955672  8.834955
In  3.066430  3.066430  5.784831
P  1.510873  7.340376  4.425097
P  4.425097  7.340376  1.510873
P  1.476067 10.322697  1.476066
P  4.425620 10.326465  4.425620
In  0.016304  5.895584  0.016304
In  3.066430  5.784831  3.066430
In  0.016299  8.834955  2.955672
In  2.955672  8.834955  0.016298
P  1.476062  7.375179 10.330238
P  4.426151  7.340365  7.340365
P  1.476062 10.330238  7.375179
P  4.425618 10.326461 10.326460
In  0.002698  5.903376  5.903376
In  2.947873  5.903375  8.848550
In -0.001270  8.852514  8.852514
In  2.947873  8.848550  5.903375
P  7.340376  1.510873  4.425097
P 10.322697  1.476067  1.476067
P  7.340376  4.425097  1.510873
P 10.326465  4.425620  4.425620
In  5.895584  0.016304  0.016304
In  8.834955  0.016299  2.955672
In  5.784831  3.066430  3.066430
In  8.834955  2.955672  0.016299
P  7.375179  1.476062 10.330238
P 10.330239  1.476062  7.375179
P  7.340366  4.426151  7.340365
P 10.326461  4.425617 10.326460
In  5.903377  0.002698  5.903376
In  8.852514 -0.001270  8.852514
In  5.903375  2.947873  8.848550
In  8.848550  2.947873  5.903375
P  7.340366  7.340366  4.426150
P 10.330239  7.375179  1.476062
P  7.375179 10.330239  1.476062
P 10.326461 10.326461  4.425617
In  5.903377  5.903377  0.002698
In  8.848550  5.903375  2.947873
In  5.903375  8.848550  2.947873
In  8.852514  8.852514 -0.001270
P  7.375175  7.375175 10.322688
P 10.322688  7.375175  7.375175
P  7.375175 10.322688  7.375175
P 10.326458 10.326458 10.326458
In  5.784804  5.784804  5.784804
In  8.834944  5.895573  8.834944
In  5.895573  8.834944  8.834944
In  8.834944  8.834944  5.895573
%ENDBLOCK POSITIONS_ABS

KPOINT_MP_GRID: 4 4 4
KPOINT_MP_OFFSET: 0.125 0.125 0.125
