#######################################################
#CASTEP cell file: /home/eng/phrbqc/GitHub/InPDislocs/Devel/Data_Devel/EOS/CASTEP_Files/ZB_EOS_0.9123/ZB_EOS_0.9123.cell
#Created using the Atomic Simulation Environment (ASE)#
#######################################################

%BLOCK LATTICE_CART
 5.383905  0.000000 -0.000000
 0.000000  5.383905 -0.000000
-0.000000 -0.000000  5.383905
%ENDBLOCK LATTICE_CART

%BLOCK POSITIONS_ABS
P  1.345976  1.345976  4.037929
P  4.037929  1.345976  1.345976
P  1.345976  4.037929  1.345976
P  4.037929  4.037929  4.037929
In  0.000000  0.000000  0.000000
In  2.691953  0.000000  2.691953
In  0.000000  2.691953  2.691953
In  2.691953  2.691953  0.000000
%ENDBLOCK POSITIONS_ABS

KPOINT_MP_GRID: 7 7 7
KPOINT_MP_OFFSET: 0.071429 0.071429 0.071429
