# written by ASE

%BLOCK LATTICE_CART
11.801682 -0.000008 -0.000008
-0.000008 11.801682 -0.000008
-0.000008 -0.000008 11.801682
%ENDBLOCK LATTICE_CART

%BLOCK POSITIONS_ABS
P  1.521106  1.705843  4.520247
P  4.520247  1.705843  1.521105
P  1.387734  4.457941  1.387734
In  0.054530 -0.098174  0.054530
In  3.688775  3.339578  3.688775
In -0.016356  2.990897  2.954158
In  2.954158  2.990898 -0.016357
P  1.477410  1.440898 10.365628
P  4.488131  1.335713  7.502296
P  1.399396  4.518926  7.526908
P  4.412567  4.443164 10.273473
In  0.091420 -0.014486  5.816956
In  2.934593 -0.102699  8.940544
In -0.028359  2.906021  8.905095
In  2.890551  2.884336  6.377715
P  1.493894  7.336305  4.440239
P  4.440239  7.336305  1.493894
P  1.582681 10.373276  1.582681
P  4.269475 10.447456  4.269475
In -0.078230  5.913924 -0.078230
In  2.880793  5.916544  2.880793
In  0.082628  8.834870  2.907971
In  2.907971  8.834870  0.082628
P  1.441748  7.419190 10.336714
P  4.435608  7.367997  7.309281
P  1.494717 10.302085  7.352687
P  4.429740 10.245215 10.386160
In -0.009037  5.876475  5.877077
In  2.956410  6.005658  8.871214
In -0.026245  8.859719  8.818172
In  2.997671  8.891493  5.823313
P  7.502296  1.335713  4.488131
P 10.365628  1.440898  1.477410
P  7.526909  4.518926  1.399396
P 10.273473  4.443164  4.412567
In  5.816956 -0.014485  0.091420
In  8.940544 -0.102699  2.934593
In  6.377715  2.884337  2.890551
In  8.905095  2.906022 -0.028359
P  7.356503  1.438872 10.378598
P 10.378598  1.438872  7.356503
P  7.314960  4.386416  7.314960
P 10.269155  4.417088 10.269154
In  5.827534 -0.102545  5.827534
In  8.840961  0.027536  8.840961
In  5.926180  2.917380  8.871020
In  8.871020  2.917380  5.926180
P  7.309281  7.367997  4.435607
P 10.336714  7.419190  1.441748
P  7.352687 10.302085  1.494717
P 10.386160 10.245215  4.429739
In  5.877077  5.876475 -0.009037
In  8.871214  6.005658  2.956410
In  5.823313  8.891493  2.997671
In  8.818173  8.859719 -0.026245
P  7.360111  7.350239 10.315122
P 10.315122  7.350239  7.360111
P  7.365319 10.331312  7.365319
P 10.312778 10.331637 10.312777
In  5.772279  5.777766  5.772279
In  8.791044  5.894846  8.791044
In  5.918776  8.831792  8.829956
In  8.829956  8.831792  5.918775
%ENDBLOCK POSITIONS_ABS

KPOINT_MP_GRID: 4 4 4
KPOINT_MP_OFFSET: 0.125 0.125 0.125
