# written by ASE

%BLOCK LATTICE_CART
11.801682 -0.000008 -0.000008
-0.000008 11.801682 -0.000008
-0.000008 -0.000008 11.801682
%ENDBLOCK LATTICE_CART

%BLOCK POSITIONS_ABS
P  1.511962  1.712543  4.525149
P  4.525149  1.712543  1.511962
P  1.402749  4.452945  1.402749
In  0.052004 -0.100361  0.052004
In  3.671181  3.343907  3.671180
In -0.023931  2.988386  2.951825
In  2.951825  2.988386 -0.023931
P  1.474932  1.439929 10.363111
P  4.488195  1.336763  7.499567
P  1.402304  4.519472  7.525801
P  4.410312  4.443728 10.271488
In  0.091342 -0.017696  5.818565
In  2.936828 -0.100849  8.939703
In -0.028207  2.908352  8.902362
In  2.893606  2.887820  6.370529
P  1.488361  7.341689  4.444112
P  4.444113  7.341689  1.488361
P  1.583267 10.374983  1.583267
P  4.270080 10.443850  4.270080
In -0.068402  5.905254 -0.068403
In  2.887574  5.933834  2.887574
In  0.079620  8.836316  2.906254
In  2.906254  8.836316  0.079620
P  1.439458  7.417371 10.339108
P  4.437223  7.366147  7.308881
P  1.495650 10.302336  7.355308
P  4.430647 10.245022 10.384368
In -0.009636  5.871885  5.876552
In  2.955201  6.008847  8.872218
In -0.026857  8.858052  8.817924
In  2.997367  8.891163  5.827194
P  7.499567  1.336763  4.488195
P 10.363111  1.439929  1.474932
P  7.525801  4.519473  1.402304
P 10.271488  4.443728  4.410311
In  5.818565 -0.017696  0.091342
In  8.939703 -0.100849  2.936828
In  6.370529  2.887821  2.893606
In  8.902363  2.908352 -0.028207
P  7.355923  1.438685 10.379352
P 10.379352  1.438685  7.355923
P  7.319942  4.385265  7.319942
P 10.273358  4.417568 10.273358
In  5.828491 -0.107300  5.828491
In  8.841022  0.030036  8.841022
In  5.925672  2.916748  8.871743
In  8.871743  2.916748  5.925671
P  7.308881  7.366147  4.437222
P 10.339109  7.417371  1.439458
P  7.355308 10.302336  1.495649
P 10.384369 10.245023  4.430647
In  5.876552  5.871885 -0.009636
In  8.872219  6.008847  2.955200
In  5.827194  8.891163  2.997367
In  8.817925  8.858052 -0.026857
P  7.359737  7.348230 10.316184
P 10.316184  7.348230  7.359737
P  7.367046 10.330147  7.367046
P 10.311095 10.330212 10.311095
In  5.772729  5.769667  5.772728
In  8.794700  5.895260  8.794699
In  5.919956  8.829630  8.829692
In  8.829692  8.829630  5.919956
%ENDBLOCK POSITIONS_ABS

KPOINT_MP_GRID: 4 4 4
KPOINT_MP_OFFSET: 0.125 0.125 0.125
