#######################################################
#CASTEP cell file: /home/eng/phrbqc/GitHub/InPDislocs/Devel/Data_Devel/EOS/CASTEP_Files/WZ_EOS_1.1949/WZ_EOS_1.1949.cell
#Created using the Atomic Simulation Environment (ASE)#
#######################################################

%BLOCK LATTICE_CART
 4.976356 -0.000052  0.000000
 2.488133  4.309676 -0.000000
 0.000000 -0.000000  8.172251
%ENDBLOCK LATTICE_CART

%BLOCK POSITIONS_ABS
P  2.488136  1.436531 -0.000106
P  4.976349  2.873101  4.086019
In  2.488151  1.436540  3.060042
In  4.976334  2.873092  7.146168
%ENDBLOCK POSITIONS_ABS

KPOINT_MP_GRID: 9 9 5
KPOINT_MP_OFFSET: 0.055556 0.055556 0.1
