#######################################################
#CASTEP cell file: /home/eng/phrbqc/GitHub/InPDislocs/Devel/Data_Devel/EOS/CASTEP_Files/ZB_EOS_1.1362/ZB_EOS_1.1362.cell
#Created using the Atomic Simulation Environment (ASE)#
#######################################################

%BLOCK LATTICE_CART
 6.704906  0.000000 -0.000000
 0.000000  6.704906 -0.000000
-0.000000 -0.000000  6.704906
%ENDBLOCK LATTICE_CART

%BLOCK POSITIONS_ABS
P  1.676226  1.676226  5.028679
P  5.028679  1.676226  1.676226
P  1.676226  5.028679  1.676226
P  5.028679  5.028679  5.028679
In  0.000000  0.000000  0.000000
In  3.352453  0.000000  3.352453
In  0.000000  3.352453  3.352453
In  3.352453  3.352453  0.000000
%ENDBLOCK POSITIONS_ABS

KPOINT_MP_GRID: 5 5 5
KPOINT_MP_OFFSET: 0.1 0.1 0.1
