#######################################################
#CASTEP cell file: /home/eng/phrbqc/GitHub/InPDislocs/Devel/Data_Devel/EOS/CASTEP_Files/ZB_EOS_0.8004/ZB_EOS_0.8004.cell
#Created using the Atomic Simulation Environment (ASE)#
#######################################################

%BLOCK LATTICE_CART
 4.723405  0.000000 -0.000000
 0.000000  4.723405 -0.000000
-0.000000 -0.000000  4.723405
%ENDBLOCK LATTICE_CART

%BLOCK POSITIONS_ABS
P  1.180851  1.180851  3.542554
P  3.542554  1.180851  1.180851
P  1.180851  3.542554  1.180851
P  3.542554  3.542554  3.542554
In  0.000000  0.000000  0.000000
In  2.361702  0.000000  2.361702
In  0.000000  2.361702  2.361702
In  2.361702  2.361702  0.000000
%ENDBLOCK POSITIONS_ABS

KPOINT_MP_GRID: 9 9 9
KPOINT_MP_OFFSET: 0.055556 0.055556 0.055556
