# written by ASE

%BLOCK LATTICE_CART
14.454049 20.441112  0.000000
14.454049 -20.441112  0.000000
-0.000000  0.000000  4.172525
%ENDBLOCK LATTICE_CART

%BLOCK POSITIONS_ABS
In  9.899328 -2.944873  3.655875
P 10.283627 -0.419134  3.102839
In  6.178886 -2.959398  1.972072
P  5.978654 -0.398415  2.108758
In  8.164657  0.697854  2.498514
P  8.260614  3.173287  2.271985
In 11.537878  0.502487  0.966889
P 11.809229  3.013107  0.442944
In  7.032914  3.981829  0.166459
P  7.130348  6.502254  0.090121
In 10.684350  3.957482  2.498007
P 10.760693  6.478429  2.300534
In  9.554474  7.305502  0.189147
P  9.639631  9.833013 -0.001629
In  5.916721  7.312560  2.158883
P 20.458527 -10.598637  2.002606
In  8.427742 10.655657  2.061667
P 22.970683 -7.257048  1.864190
In 12.064245 10.642725  0.068474
P 12.150626 13.173362 -0.093998
In 21.768532 -6.420752  3.923578
P 21.853861 -3.896895  3.703907
In 10.941005 13.989369  1.972778
P 25.446470 -3.932566  1.867314
In 17.135562 -2.958184  3.594725
P 17.408974 -0.419395  3.234226
In 13.540487 -2.975888  1.493580
P 13.860387 -0.439043  1.070227
In 15.059780  0.474615  3.113540
P 15.386931  2.993685  2.638785
In 18.621481  0.465610  1.110825
P 18.983231  2.984975  0.601893
In 14.220146  3.883921  0.532144
P 14.357536  6.425916  0.303074
In 17.803425  3.877916  2.672652
P 17.949325  6.425066  2.424706
In 16.770485  7.294087  0.321008
P 16.879593  9.843304  0.135893
In 13.181501  7.291701  2.367838
P 13.273953  9.823858  2.173947
In 15.683146 10.691287  2.207907
P 15.756151 13.237569  2.080602
In 19.298865 10.707319  0.107090
P 19.395076 13.267826 -0.017915
In 14.543982 14.073509 -0.016572
P 14.565469 16.620098 -0.059406
In 18.170929 14.095632  2.064486
P  3.753857 -3.791407  2.021156
In 24.257289 -3.079675  3.936825
P 24.340065 -0.603291  3.824154
In 20.716977 -2.974594  1.578140
P 20.951585 -0.454184  1.103158
In 22.225554  0.429433  3.094670
P 22.624265  2.950606  2.638259
In 26.555110  0.418534  4.240054
P 26.364761  2.953972  0.260371
In 21.423629  3.837687  0.554727
P 21.554549  6.391309  0.296682
In 25.084997  3.718035  2.374604
P 10.716417 -14.135793  2.232673
In  9.535985 -13.233621  4.319486
P  9.631250 -10.659651  4.198147
In 20.373858  7.271679  2.373797
P 20.482389  9.830989  2.201433
In  8.451555 -9.764331  2.109525
P  8.556610 -7.193548  1.992211
In 12.050187 -9.809156  4.085293
P 12.167638 -7.250578  3.902844
In  7.368986 -6.308788  4.081670
P  7.456168 -3.722393  4.033624
In 10.986497 -6.370857  1.804956
P 11.100641 -3.814528  1.585819
In  2.516819 -2.969663  4.112436
P  2.418403 -0.417998  0.013171
In 13.346878 17.457896  2.022251
P 27.773285 -0.436256  2.130683
In  1.224451  0.431281  2.102071
P 15.540935 -17.460823  2.201221
In  4.767355  0.487507  0.028225
P  4.684124  3.030447  0.098224
In 14.318742 -16.620306  4.296283
P 14.357200 -14.070074  4.217699
In  3.470914  3.867742  2.181406
P 17.979620 -14.029280  2.113745
In 16.764490 -13.197868  4.190234
P 16.847588 -10.651329  4.058268
In 13.128747 -13.246741  2.128186
P 13.236143 -10.682125  2.006431
In 15.647639 -9.808502  1.958979
P 15.766045 -7.257765  1.766791
In 19.250992 -9.775615  4.070200
P 19.352472 -7.240505  3.873516
In 14.585857 -6.392897  3.835450
P 14.717630 -3.842674  3.603557
In 18.172697 -6.379400  1.764713
P 18.300444 -3.835890  1.538815
%ENDBLOCK POSITIONS_ABS

KPOINT_MP_GRID: 2 2 8
KPOINT_MP_OFFSET: 0.25 0.25 0.0625
