# written by ASE

%BLOCK LATTICE_CART
14.454049 20.441112  0.000000
14.454049 -20.441112  0.000000
-0.000000  0.000000  4.172525
%ENDBLOCK LATTICE_CART

%BLOCK POSITIONS_ABS
In  9.897539 -2.945082  3.657366
P 10.273149 -0.415710  3.118345
In  6.178060 -2.962004  1.972652
P  5.979353 -0.399688  2.105434
In  8.163582  0.702969  2.484080
P  8.262829  3.177300  2.267913
In 11.534260  0.500498  0.979998
P 11.811176  3.008989  0.440511
In  7.032967  3.982725  0.162620
P  7.130451  6.503270  0.088974
In 10.688559  3.957226  2.494764
P 10.761824  6.478258  2.299508
In  9.555089  7.305132  0.188075
P  9.640079  9.832847 -0.001978
In  5.916902  7.313623  2.157970
P 20.458856 -10.597666  2.002517
In  8.428347 10.655983  2.061342
P 22.970937 -7.256588  1.865079
In 12.064566 10.643142  0.067848
P 12.150571 13.173877 -0.093273
In 21.768719 -6.420150  3.924527
P 21.853556 -3.895985  3.705824
In 10.941228 13.990586  1.973522
P 25.446264 -3.931285  1.870531
In 17.135032 -2.958682  3.596789
P 17.405955 -0.420326  3.236032
In 13.540516 -2.976857  1.496140
P 13.856995 -0.439676  1.074812
In 15.057234  0.474345  3.116662
P 15.388502  2.991640  2.635215
In 18.619029  0.464511  1.111542
P 18.984820  2.982195  0.597601
In 14.221737  3.882408  0.528211
P 14.358213  6.424929  0.301146
In 17.805715  3.875849  2.667939
P 17.950414  6.423339  2.421964
In 16.771600  7.292892  0.318149
P 16.879951  9.842142  0.134751
In 13.182662  7.292128  2.365845
P 13.274302  9.824148  2.173274
In 15.683793 10.690582  2.206820
P 15.756170 13.236720  2.080936
In 19.299038 10.706511  0.106129
P 19.394475 13.266896 -0.017418
In 14.544472 14.072977 -0.016157
P 14.565881 16.619633 -0.058891
In 18.170674 14.094920  2.064956
P  3.753076 -3.792222  2.022318
In 24.256625 -3.078404  3.940543
P 24.341125 -0.602791  3.818601
In 20.715848 -2.974502  1.580294
P 20.949116 -0.454840  1.105009
In 22.223654  0.429179  3.096555
P 22.625374  2.949502  2.635037
In 26.554910  0.418729  4.244100
P 26.365849  2.954620  0.258190
In 21.425014  3.836911  0.551153
P 21.555204  6.390767  0.294429
In 25.086102  3.718749  2.372001
P 10.716988 -14.135083  2.232160
In  9.536549 -13.233250  4.318814
P  9.631520 -10.659297  4.198191
In 20.374776  7.271436  2.371369
P 20.482752  9.830597  2.200455
In  8.451819 -9.764279  2.109557
P  8.556348 -7.193514  1.993625
In 12.050229 -9.808201  4.086278
P 12.167150 -7.249484  3.904556
In  7.368263 -6.309619  4.083251
P  7.454991 -3.724240  4.034200
In 10.985725 -6.369958  1.806748
P 11.100321 -3.813551  1.587373
In  2.517103 -2.969432  4.113497
P  2.418884 -0.417545  0.012758
In 13.347721 17.457527  2.022528
P 27.773683 -0.436646  2.133973
In  1.224274  0.431805  2.101802
P 15.541347 -17.460123  2.200477
In  4.768508  0.486962  0.026020
P  4.685050  3.030098  0.097212
In 14.319486 -16.619094  4.295580
P 14.357409 -14.068955  4.218233
In  3.471421  3.868135  2.180751
P 17.979840 -14.028658  2.113982
In 16.764711 -13.197069  4.190592
P 16.847832 -10.650576  4.058948
In 13.129023 -13.245805  2.128802
P 13.236164 -10.681192  2.007389
In 15.647723 -9.808069  1.959716
P 15.765746 -7.257354  1.767895
In 19.251247 -9.774884  4.070201
P 19.352544 -7.239894  3.874046
In 14.585512 -6.392732  3.836597
P 14.717429 -3.842470  3.605789
In 18.172432 -6.379353  1.765268
P 18.299936 -3.835831  1.540527
%ENDBLOCK POSITIONS_ABS

KPOINT_MP_GRID: 2 2 8
KPOINT_MP_OFFSET: 0.25 0.25 0.0625
