# written by ASE

%BLOCK LATTICE_CART
11.801682 -0.000008 -0.000008
-0.000008 11.801682 -0.000008
-0.000008 -0.000008 11.801682
%ENDBLOCK LATTICE_CART

%BLOCK POSITIONS_ABS
P  1.561710  1.564817  4.431265
P  4.431265  1.564818  1.561710
P  1.380260  4.417672  1.380260
In  0.058273 -0.086658  0.058273
In  4.136495  3.838726  4.136494
In -0.001272  2.940664  2.963128
In  2.963128  2.940664 -0.001272
P  1.475088  1.433812 10.354389
P  4.450722  1.376100  7.469550
P  1.393254  4.508504  7.520991
P  4.414647  4.423039 10.299191
In  0.093108 -0.007715  5.805882
In  2.941480 -0.097933  8.918227
In -0.031070  2.905682  8.905017
In  2.746631  2.796698  6.295899
P  1.469119  7.355233  4.424832
P  4.424832  7.355233  1.469119
P  1.602651 10.420891  1.602651
P  4.259240 10.443835  4.259239
In -0.071947  5.907419 -0.071947
In  2.808002  5.947360  2.808002
In  0.075734  8.878622  2.902382
In  2.902382  8.878622  0.075734
P  1.449533  7.416550 10.339481
P  4.440889  7.350078  7.315430
P  1.494927 10.291157  7.342054
P  4.435219 10.256624 10.370229
In -0.016446  5.884999  5.879307
In  2.967524  5.984870  8.883198
In -0.020297  8.855973  8.816895
In  3.009203  8.867679  5.813243
P  7.469551  1.376100  4.450722
P 10.354389  1.433812  1.475088
P  7.520991  4.508504  1.393253
P 10.299191  4.423039  4.414647
In  5.805882 -0.007714  0.093109
In  8.918227 -0.097933  2.941480
In  6.295899  2.796699  2.746631
In  8.905017  2.905683 -0.031070
P  7.361042  1.429093 10.372840
P 10.372840  1.429093  7.361042
P  7.330904  4.373224  7.330904
P 10.272114  4.417372 10.272114
In  5.805518 -0.061802  5.805518
In  8.839469  0.005769  8.839469
In  5.920324  2.913152  8.878106
In  8.878106  2.913152  5.920324
P  7.315430  7.350078  4.440889
P 10.339482  7.416550  1.449533
P  7.342054 10.291157  1.494927
P 10.370230 10.256624  4.435218
In  5.879307  5.884999 -0.016447
In  8.883198  5.984870  2.967524
In  5.813243  8.867679  3.009203
In  8.816896  8.855973 -0.020297
P  7.360557  7.355701 10.304748
P 10.304748  7.355701  7.360557
P  7.346466 10.344365  7.346466
P 10.319488 10.324225 10.319488
In  5.801571  5.766053  5.801570
In  8.793686  5.887942  8.793686
In  5.910163  8.836606  8.819228
In  8.819229  8.836606  5.910162
%ENDBLOCK POSITIONS_ABS

KPOINT_MP_GRID: 4 4 4
KPOINT_MP_OFFSET: 0.125 0.125 0.125
