# written by ASE

%BLOCK LATTICE_CART
11.801682 -0.000008 -0.000008
-0.000008 11.801682 -0.000008
-0.000008 -0.000008 11.801682
%ENDBLOCK LATTICE_CART

%BLOCK POSITIONS_ABS
P  1.564812  1.574776  4.439420
P  4.439421  1.574777  1.564812
P  1.372524  4.416910  1.372524
In  0.058533 -0.086823  0.058533
In  4.147058  3.831084  4.147057
In  0.000326  2.941887  2.964195
In  2.964195  2.941887  0.000326
P  1.476273  1.433420 10.355378
P  4.452123  1.373669  7.472790
P  1.390387  4.512288  7.526078
P  4.414668  4.423102 10.296860
In  0.093120 -0.005938  5.803998
In  2.939631 -0.100424  8.919019
In -0.032269  2.904009  8.906767
In  2.745609  2.798493  6.311638
P  1.473333  7.349795  4.423157
P  4.423157  7.349795  1.473333
P  1.601644 10.419784  1.601643
P  4.257908 10.446515  4.257908
In -0.076335  5.911013 -0.076336
In  2.806449  5.933996  2.806448
In  0.079525  8.876145  2.903355
In  2.903355  8.876145  0.079525
P  1.449247  7.419309 10.339562
P  4.441354  7.348608  7.312581
P  1.494136 10.290727  7.339727
P  4.433668 10.255562 10.372300
In -0.018142  5.885478  5.878998
In  2.967835  5.988347  8.884766
In -0.020576  8.857279  8.816205
In  3.009443  8.867653  5.811468
P  7.472790  1.373669  4.452123
P 10.355378  1.433420  1.476273
P  7.526079  4.512289  1.390387
P 10.296860  4.423102  4.414668
In  5.803998 -0.005937  0.093120
In  8.919019 -0.100424  2.939631
In  6.311639  2.798494  2.745609
In  8.906767  2.904010 -0.032270
P  7.360841  1.429208 10.372231
P 10.372231  1.429208  7.360841
P  7.325380  4.374490  7.325379
P 10.269395  4.417541 10.269395
In  5.805445 -0.062082  5.805445
In  8.839093  0.005830  8.839092
In  5.921093  2.913776  8.875959
In  8.875960  2.913776  5.921092
P  7.312581  7.348608  4.441354
P 10.339562  7.419309  1.449247
P  7.339728 10.290727  1.494136
P 10.372300 10.255562  4.433667
In  5.878998  5.885478 -0.018142
In  8.884767  5.988347  2.967835
In  5.811468  8.867653  3.009443
In  8.816206  8.857279 -0.020576
P  7.360385  7.356571 10.304010
P 10.304011  7.356571  7.360385
P  7.345959 10.344466  7.345958
P 10.319343 10.325176 10.319343
In  5.791775  5.759545  5.791774
In  8.790267  5.887201  8.790267
In  5.908666  8.837139  8.819100
In  8.819101  8.837139  5.908666
%ENDBLOCK POSITIONS_ABS

KPOINT_MP_GRID: 4 4 4
KPOINT_MP_OFFSET: 0.125 0.125 0.125
