#######################################################
#CASTEP cell file: /home/eng/phrbqc/GitHub/InPDislocs/Devel/Data_Devel/EOS/CASTEP_Files/WZ_EOS_0.7951/WZ_EOS_0.7951.cell
#Created using the Atomic Simulation Environment (ASE)#
#######################################################

%BLOCK LATTICE_CART
 3.311476 -0.000035  0.000000
 1.655708  2.867839 -0.000000
 0.000000 -0.000000  5.438159
%ENDBLOCK LATTICE_CART

%BLOCK POSITIONS_ABS
P  1.655710  0.955928 -0.000071
P  3.311471  1.911882  2.719009
In  1.655720  0.955934  2.036281
In  3.311461  1.911876  4.755360
%ENDBLOCK POSITIONS_ABS

KPOINT_MP_GRID: 13 13 7
KPOINT_MP_OFFSET: 0.038462 0.038462 0.071429
