#######################################################
#CASTEP cell file: /home/eng/phrbqc/GitHub/InPDislocs/Devel/Data_Devel/EOS/CASTEP_Files/WZ_EOS_1.1203/WZ_EOS_1.1203.cell
#Created using the Atomic Simulation Environment (ASE)#
#######################################################

%BLOCK LATTICE_CART
 4.665578 -0.000049  0.000000
 2.332747  4.040533 -0.000000
 0.000000 -0.000000  7.661888
%ENDBLOCK LATTICE_CART

%BLOCK POSITIONS_ABS
P  2.332749  1.346819 -0.000100
P  4.665571  2.693673  3.830844
In  2.332764  1.346827  2.868940
In  4.665557  2.693665  6.699884
%ENDBLOCK POSITIONS_ABS

KPOINT_MP_GRID: 9 9 5
KPOINT_MP_OFFSET: 0.055556 0.055556 0.1
