# written by ASE

%BLOCK LATTICE_CART
11.802550  0.000000  0.000000
 0.000000 11.802550  0.000000
 0.000000  0.000000 11.802550
%ENDBLOCK LATTICE_CART

%BLOCK POSITIONS_ABS
P  1.533956  1.416682  4.457639
P  4.486783  1.477636  1.487738
P  1.533956  4.447537  1.426784
P  4.434871  4.433381  4.443483
P  1.473001  1.477636 10.276507
P  4.449193  1.451577  7.368442
P  1.487618  4.416190  7.374886
P  4.601542  4.536790 10.161748
P  1.487618  7.364784  4.426292
P  4.449193  7.358339  1.461679
P  1.473001 10.266405  1.487738
P  4.601542 10.151646  4.546892
P  1.499060  7.358339 10.314096
P  4.461824  7.369478  7.379581
P  1.499060 10.303994  7.368442
P  4.412774 10.340414 10.350516
P  7.388403  1.463019  4.426292
P 10.305650  1.416682  1.426784
P  7.388403  4.416190  1.473121
P 10.341683  4.411505  4.421607
P  7.394848  1.451577 10.314096
P 10.336997  1.463019  7.374886
P  7.427664  4.408080  7.335626
P 10.319807  4.433381 10.328419
P  7.427664  7.325523  4.418183
P 10.336997  7.364784  1.473121
P  7.394848 10.303994  1.461679
P 10.319807 10.318317  4.443483
P  7.383709  7.369478 10.301466
P 10.345107  7.325523  7.335626
P  7.383709 10.291363  7.379581
P 10.216398 10.151646 10.161748
In -0.198251 -0.211038 -0.200935
In  3.161675 -0.211038  3.158991
In -0.011849  2.962487  2.972589
In  3.161675  3.148889 -0.200935
In  0.009436 -0.019995  5.917897
In  2.960345 -0.009708  8.839935
In -0.017604  2.968241  8.840684
In  2.970633  2.941201  5.917897
In  0.009436  5.907795 -0.009893
In  2.970633  5.907795  2.951303
In -0.017604  8.830582  2.978344
In  2.960345  8.829833  0.000395
In  0.027727  5.869114  5.879217
In  2.955356  5.924225  8.802216
In  0.045142  8.768126  8.778228
In  2.955356  8.792114  5.934327
In  5.923354 -0.009708  0.000395
In  8.845392 -0.019995  2.951303
In  5.922606  2.968241  2.978344
In  8.845392  2.941201 -0.009893
In  5.961074 -0.004718  5.934327
In  8.828962 -0.004718  8.802216
In  5.985062  2.905496  8.778228
In  8.884073  2.922910  5.879217
In  5.961074  5.924225  0.005384
In  8.884073  5.869114  2.933012
In  5.985062  8.768126  2.915598
In  8.828962  8.792114  0.005384
In  5.930831  5.893768  5.903870
In  8.859419  5.893768  8.832459
In  5.889130  8.864058  8.874160
In  8.859419  8.822357  5.903870
In  1.644600  1.306038  1.316140
%ENDBLOCK POSITIONS_ABS

KPOINT_MP_GRID: 4 4 4
KPOINT_MP_OFFSET: 0.125 0.125 0.125
