# written by ASE

%BLOCK LATTICE_CART
11.802550  0.000000  0.000000
 0.000000 11.802550  0.000000
 0.000000  0.000000 11.802550
%ENDBLOCK LATTICE_CART

%BLOCK POSITIONS_ABS
P  1.535010  1.415627  4.456517
P  4.487737  1.478176  1.488180
P  1.535010  4.446514  1.425631
P  4.434205  4.434284  4.444287
P  1.472461  1.478176 10.275454
P  4.448834  1.451589  7.368814
P  1.487071  4.416442  7.375456
P  4.601803  4.537829 10.161388
P  1.487071  7.365452  4.426446
P  4.448834  7.358810  1.461593
P  1.472461 10.265450  1.488180
P  4.601803 10.151385  4.547832
P  1.499048  7.358810 10.314357
P  4.461669  7.370128  7.380131
P  1.499048 10.304353  7.368814
P  4.412173 10.341015 10.351018
P  7.387735  1.463566  4.426446
P 10.306674  1.415627  1.425631
P  7.387735  4.416442  1.473570
P 10.341540  4.411647  4.421651
P  7.394377  1.451589 10.314357
P 10.336745  1.463566  7.375456
P  7.427587  4.408356  7.335604
P 10.318904  4.434284 10.328986
P  7.427587  7.325600  4.418360
P 10.336745  7.365452  1.473570
P  7.394377 10.304353  1.461593
P 10.318904 10.318983  4.444287
P  7.383060  7.370128 10.301522
P 10.344831  7.325600  7.335604
P  7.383060 10.291519  7.380131
P 10.215359 10.151385 10.161388
In -0.196907 -0.212431 -0.202428
In  3.163069 -0.212431  3.157548
In -0.012030  2.962667  2.972671
In  3.163069  3.147545 -0.202428
In  0.009358 -0.019576  5.918584
In  2.960150 -0.009513  8.839766
In -0.018605  2.969243  8.841501
In  2.970213  2.941279  5.918584
In  0.009358  5.908581 -0.009572
In  2.970213  5.908581  2.951283
In -0.018605  8.831497  2.979246
In  2.960150  8.829763  0.000491
In  0.027467  5.869257  5.879261
In  2.955088  5.924695  8.802127
In  0.044922  8.768087  8.778091
In  2.955088  8.792124  5.934698
In  5.923425 -0.009513  0.000491
In  8.844607 -0.019576  2.951283
In  5.921690  2.969243  2.979246
In  8.844607  2.941279 -0.009572
In  5.961064 -0.004450  5.934698
In  8.828493 -0.004450  8.802127
In  5.985100  2.905716  8.778091
In  8.883930  2.923170  5.879261
In  5.961064  5.924695  0.005553
In  8.883930  5.869257  2.933174
In  5.985100  8.768087  2.915719
In  8.828493  8.792124  0.005553
In  5.930678  5.894481  5.904485
In  8.858706  5.894481  8.832513
In  5.888249  8.864939  8.874942
In  8.858706  8.822509  5.904485
In  1.642392  1.308246  1.318249
%ENDBLOCK POSITIONS_ABS

KPOINT_MP_GRID: 4 4 4
KPOINT_MP_OFFSET: 0.125 0.125 0.125
