# written by ASE

%BLOCK LATTICE_CART
11.801682 -0.000008 -0.000008
-0.000008 11.801682 -0.000008
-0.000008 -0.000008 11.801682
%ENDBLOCK LATTICE_CART

%BLOCK POSITIONS_ABS
P  4.181199  4.181199  4.361663
P  4.391117  1.419249  1.398759
P  1.419249  4.391117  1.398759
In -0.017811 -0.017811  0.026626
In  2.859154  0.109173  3.004466
In  0.109173  2.859154  3.004465
In  2.944942  2.944942 -0.053731
P  1.445074  1.445074 10.321171
P  4.446599  1.403890  7.470039
P  1.403890  4.446599  7.470039
P  4.434030  4.434030 10.311196
In  0.140827  0.140827  5.673006
In  2.911815 -0.077129  8.881195
In -0.077129  2.911815  8.881195
In  2.896389  2.896389  6.148191
P  1.455481  7.356214  4.431059
P  4.400308  7.328254  1.538391
P  1.450247 10.338748  1.534352
P  4.378996 10.367903  4.419773
In -0.053815  5.896078 -0.067885
In  2.847805  5.835663  2.924259
In -0.037459  8.826923  2.959343
In  2.938823  8.834670  0.082234
P  1.459514  7.418139 10.335143
P  4.413806  7.317231  7.311981
P  1.446377 10.365576  7.297818
P  4.399850 10.238558 10.323120
In -0.024402  5.893995  5.910101
In  2.943844  5.938825  8.876467
In -0.007699  8.885994  8.817405
In  2.942902  8.849050  5.895627
P  7.356214  1.455481  4.431059
P 10.338748  1.450247  1.534352
P  7.328254  4.400308  1.538391
P 10.367903  4.378996  4.419773
In  5.896078 -0.053815 -0.067885
In  8.826923 -0.037459  2.959343
In  5.835663  2.847805  2.924259
In  8.834670  2.938823  0.082234
P  7.418139  1.459513 10.335143
P 10.365576  1.446377  7.297819
P  7.317231  4.413805  7.311981
P 10.238558  4.399850 10.323120
In  5.893995 -0.024403  5.910101
In  8.885994 -0.007699  8.817406
In  5.938825  2.943844  8.876467
In  8.849050  2.942902  5.895627
P  7.333901  7.333901  4.437200
P 10.306668  7.350604  1.463121
P  7.350604 10.306668  1.463121
P 10.320540 10.320540  4.436781
In  5.885043  5.885043  0.035450
In  8.854293  5.877830  2.969788
In  5.877830  8.854293  2.969788
In  8.834951  8.834951 -0.008826
P  7.349022  7.349022 10.337048
P 10.307329  7.362681  7.394931
P  7.362681 10.307329  7.394931
P 10.320355 10.320355 10.329777
In  5.758726  5.758726  5.758137
In  8.784967  5.881952  8.821717
In  5.881952  8.784967  8.821717
In  8.831550  8.831550  5.920936
%ENDBLOCK POSITIONS_ABS

KPOINT_MP_GRID: 4 4 4
KPOINT_MP_OFFSET: 0.125 0.125 0.125
