# written by ASE

%BLOCK LATTICE_CART
11.801682 -0.000008 -0.000008
-0.000008 11.801682 -0.000008
-0.000008 -0.000008 11.801682
%ENDBLOCK LATTICE_CART

%BLOCK POSITIONS_ABS
P  4.180241  4.180241  4.360218
P  4.392012  1.419213  1.397180
P  1.419213  4.392012  1.397180
In -0.017143 -0.017143  0.026839
In  2.863700  0.105143  3.001899
In  0.105143  2.863700  3.001899
In  2.944592  2.944592 -0.053793
P  1.445185  1.445184 10.320591
P  4.447554  1.404012  7.471301
P  1.404012  4.447553  7.471301
P  4.433645  4.433645 10.310908
In  0.135905  0.135905  5.676158
In  2.911983 -0.077195  8.880750
In -0.077195  2.911982  8.880750
In  2.898259  2.898259  6.151392
P  1.456063  7.356121  4.430973
P  4.400516  7.328516  1.538066
P  1.449880 10.338121  1.534282
P  4.380359 10.365834  4.420218
In -0.053782  5.896443 -0.068400
In  2.847975  5.836045  2.923384
In -0.037238  8.826374  2.959567
In  2.938846  8.834965  0.081938
P  1.459584  7.418610 10.335517
P  4.414411  7.317597  7.312285
P  1.446206 10.364191  7.298941
P  4.400004 10.238582 10.322879
In -0.023446  5.893246  5.909479
In  2.944245  5.939989  8.877155
In -0.008169  8.885285  8.818343
In  2.942899  8.848947  5.896291
P  7.356121  1.456063  4.430973
P 10.338121  1.449880  1.534282
P  7.328516  4.400516  1.538066
P 10.365834  4.380359  4.420218
In  5.896443 -0.053782 -0.068400
In  8.826374 -0.037238  2.959567
In  5.836045  2.847975  2.923384
In  8.834965  2.938846  0.081938
P  7.418611  1.459584 10.335517
P 10.364192  1.446206  7.298941
P  7.317598  4.414411  7.312285
P 10.238582  4.400003 10.322879
In  5.893246 -0.023446  5.909480
In  8.885285 -0.008169  8.818343
In  5.939989  2.944245  8.877155
In  8.848947  2.942898  5.896291
P  7.334154  7.334153  4.437036
P 10.307013  7.350769  1.462886
P  7.350769 10.307013  1.462886
P 10.318913 10.318913  4.435777
In  5.884345  5.884345  0.035421
In  8.853953  5.878866  2.969225
In  5.878866  8.853953  2.969225
In  8.835123  8.835123 -0.008581
P  7.348996  7.348996 10.337759
P 10.308010  7.362114  7.394615
P  7.362114 10.308010  7.394615
P 10.320597 10.320596 10.330465
In  5.759064  5.759064  5.757465
In  8.785348  5.882615  8.822116
In  5.882615  8.785348  8.822116
In  8.831119  8.831119  5.921590
%ENDBLOCK POSITIONS_ABS

KPOINT_MP_GRID: 4 4 4
KPOINT_MP_OFFSET: 0.125 0.125 0.125
