# written by ASE

%BLOCK LATTICE_CART
11.801682 -0.000008 -0.000008
-0.000008 11.801682 -0.000008
-0.000008 -0.000008 11.801682
%ENDBLOCK LATTICE_CART

%BLOCK POSITIONS_ABS
P  1.461348  1.461140  4.394112
P  5.160221  1.005002  2.209804
P  1.417316  4.472381  1.479470
P  4.375980  4.472366  4.438128
P  1.357600  1.512498 10.208866
P  4.402935  1.462620  7.353358
P  1.443379  4.413672  7.341138
P  4.429887  4.472374 10.268575
P  1.442483  7.375480  4.412965
P  4.402937  7.403897  1.452514
P  1.381943 10.249570  1.453019
P  4.402438 10.249546  4.473525
P  1.444872  7.365102 10.296141
P  4.402933  7.327855  7.353354
P  1.456208 10.315560  7.365309
P  4.403431 10.249558 10.233196
P  7.448254  1.512484  4.497832
P 10.303781  1.462619  1.452513
P  7.388550  4.472365  1.425559
P 10.315995  4.413661  4.412063
P  7.344526  1.461132 10.312607
P 10.303772  1.409483  7.353349
P  7.362486  4.413661  7.365571
P 10.291552  4.413663 10.294639
P  7.360996  7.365091  4.410573
P 10.303777  7.327856  1.452510
P  7.423941 10.249550  1.452013
P 10.291825 10.315551  4.399232
P  7.363380  7.375472 10.293744
P 10.303774  7.362585  7.353351
P  7.349657 10.315550  7.341404
P 10.315725 10.315552 10.307470
In -0.004264  0.012448 -0.037894
In  2.842180 -0.162648  3.013309
In -0.027890  2.930684  2.927141
In  2.768455  3.140152 -0.181970
In -0.008774 -0.031226  5.864238
In  2.912519  0.012439  8.846992
In -0.092071  2.952164  8.759197
In  2.928314  2.930683  5.883351
In -0.037019  5.898482 -0.043584
In  2.932171  5.939590  2.923283
In -0.072357  8.803792  2.937158
In  2.913210  8.855548 -0.037212
In -0.018407  5.894377  5.873855
In  2.906830  5.898474  8.814241
In -0.028083  8.845091  8.823186
In  2.918285  8.803782  5.927816
In  5.963724 -0.162648 -0.108249
In  8.810161  0.012431  2.942936
In  6.037405  3.140114  3.086984
In  8.833773  2.930682 -0.022108
In  5.893361  0.012430  5.859742
In  8.814655 -0.031234  8.842487
In  5.877556  2.930676  8.823368
In  8.897927  2.952151  5.947504
In  5.873706  5.939590 -0.018250
In  8.842893  5.898466  2.948611
In  5.892669  8.855532  2.942247
In  8.878237  8.803785 -0.032136
In  5.899033  5.898466  5.892469
In  8.824269  5.894369  8.832853
In  5.887574  8.803782  8.778901
In  8.833948  8.845084  5.883525
P  3.645598  1.005013  0.695169
%ENDBLOCK POSITIONS_ABS

KPOINT_MP_GRID: 4 4 4
KPOINT_MP_OFFSET: 0.125 0.125 0.125
