# written by ASE

%BLOCK LATTICE_CART
11.801682 -0.000008 -0.000008
-0.000008 11.801682 -0.000008
-0.000008 -0.000008 11.801682
%ENDBLOCK LATTICE_CART

%BLOCK POSITIONS_ABS
P  1.459715  1.461465  4.395765
P  5.159821  1.002043  2.209607
P  1.418230  4.472501  1.480832
P  4.374596  4.472466  4.437200
P  1.359354  1.513737 10.210568
P  4.402953  1.463181  7.353343
P  1.442999  4.413557  7.341503
P  4.431300  4.472503 10.269465
P  1.442201  7.377347  4.413237
P  4.402954  7.404106  1.452507
P  1.381123 10.250751  1.452564
P  4.402980 10.250618  4.474495
P  1.445650  7.365652 10.296933
P  4.402943  7.326208  7.353377
P  1.456469 10.314974  7.365729
P  4.402923 10.250722 10.232299
P  7.446481  1.513675  4.496035
P 10.303805  1.463172  1.452501
P  7.387633  4.472443  1.424178
P 10.315643  4.413516  4.412435
P  7.346129  1.461453 10.311013
P 10.303732  1.408625  7.353353
P  7.362880  4.413530  7.365183
P 10.291913  4.413547 10.294245
P  7.360234  7.365607  4.409806
P 10.303761  7.326239  1.452513
P  7.424803 10.250722  1.452505
P 10.291402 10.314962  4.398955
P  7.363684  7.377360 10.293455
P 10.303789  7.362236  7.353348
P  7.349414 10.314967  7.341003
P 10.316195 10.314996 10.307780
In -0.004728  0.013716 -0.038965
In  2.838757 -0.164948  3.016918
In -0.027963  2.930894  2.927475
In  2.771135  3.140575 -0.179344
In -0.009315 -0.032857  5.864767
In  2.911430  0.013686  8.846407
In -0.091778  2.951119  8.759483
In  2.927965  2.930909  5.883449
In -0.036006  5.897742 -0.043735
In  2.931423  5.941671  2.924025
In -0.072866  8.803698  2.936070
In  2.914320  8.857097 -0.036112
In -0.018069  5.894428  5.873508
In  2.906673  5.897726  8.815286
In -0.027900  8.844277  8.823382
In  2.919339  8.803636  5.928378
In  5.967110 -0.164867 -0.111673
In  8.810733  0.013658  2.944011
In  6.034681  3.140451  3.084268
In  8.833886  2.930897 -0.022468
In  5.894481  0.013654  5.860309
In  8.815172 -0.032872  8.842024
In  5.877930  2.930893  8.823258
In  8.897591  2.951071  5.947144
In  5.874492  5.941677 -0.019010
In  8.841865  5.897689  2.948759
In  5.891600  8.857044  2.941161
In  8.878760  8.803718 -0.031063
In  5.899173  5.897699  5.891434
In  8.823934  5.894430  8.833169
In  5.886506  8.803690  8.778386
In  8.833770  8.844259  5.883343
P  3.645680  1.002078  0.695289
%ENDBLOCK POSITIONS_ABS

KPOINT_MP_GRID: 4 4 4
KPOINT_MP_OFFSET: 0.125 0.125 0.125
