# written by ASE

%BLOCK LATTICE_CART
11.802550  0.000000  0.000000
 0.000000 11.802550  0.000000
 0.000000  0.000000 11.802550
%ENDBLOCK LATTICE_CART

%BLOCK POSITIONS_ABS
P  1.486307  1.464331  4.464825
P  4.519290  1.578694  1.588964
P  1.486307  4.454555  1.474601
P  4.429561  4.463004  4.473274
P  1.371944  1.578694 10.244168
P  4.453009  1.477908  7.353956
P  1.482094  4.436116  7.358911
P  4.513218  4.478399 10.250240
P  1.482094  7.348641  4.446386
P  4.453009  7.343685  1.488178
P  1.371944 10.233898  1.588964
P  4.513218 10.239969  4.488670
P  1.472730  7.343685 10.310449
P  4.447436  7.386889  7.397160
P  1.472730 10.300179  7.353956
P  4.382801 10.370386 10.380657
P  7.404547  1.468544  4.446386
P 10.298632  1.464331  1.474601
P  7.404547  4.436116  1.478814
P 10.380948  4.372239  4.382509
P  7.409502  1.477908 10.310449
P 10.317071  1.468544  7.358911
P  7.410174  4.417183  7.353284
P 10.290183  4.463004 10.333897
P  7.410174  7.343014  4.427453
P 10.317071  7.348641  1.478814
P  7.409502 10.300179  1.488178
P 10.290183 10.323627  4.473274
P  7.366298  7.386889 10.316022
P 10.336005  7.343014  7.353284
P  7.366298 10.305751  7.397160
P 10.274788 10.239969 10.250240
In -0.194480 -0.061934 -0.051664
In  3.012571 -0.061934  3.155388
In  0.057877  2.892760  2.903031
In  3.012571  3.145117 -0.051664
In -0.008115 -0.012102  5.909442
In  2.905527  0.045110  8.762574
In -0.099649  3.050287  8.773712
In  2.962739  2.958752  5.909442
In -0.008115  5.899172 -0.001831
In  2.962739  5.899172  2.969023
In -0.099649  8.763442  3.060557
In  2.905527  8.752304  0.055381
In -0.002740  5.864904  5.875174
In  2.959605  5.905481  8.815714
In  0.016730  8.806410  8.816680
In  2.959605  8.805443  5.915751
In  6.000884  0.045110  0.055381
In  8.854016 -0.012102  2.969023
In  5.989746  3.050287  3.060557
In  8.854016  2.958752 -0.001831
In  5.947744 -0.008967  5.915751
In  8.847707 -0.008967  8.815714
In  5.946778  2.933908  8.816680
In  8.888284  2.953378  5.875174
In  5.947744  5.905481  0.001303
In  8.888284  5.864904  2.963648
In  5.946778  8.806410  2.944178
In  8.847707  8.805443  0.001303
In  5.924057  5.918868  5.929138
In  8.834320  5.918868  8.839401
In  5.873082  8.880105  8.890375
In  8.834320  8.829130  5.929138
In  2.812945  0.137692  0.147962
%ENDBLOCK POSITIONS_ABS

KPOINT_MP_GRID: 4 4 4
KPOINT_MP_OFFSET: 0.125 0.125 0.125
