# written by ASE

%BLOCK LATTICE_CART
11.802550  0.000000  0.000000
 0.000000 11.802550  0.000000
 0.000000  0.000000 11.802550
%ENDBLOCK LATTICE_CART

%BLOCK POSITIONS_ABS
P  1.486176  1.464461  4.464529
P  4.517962  1.578316  1.588585
P  1.486176  4.454260  1.474730
P  4.429718  4.462255  4.472524
P  1.372322  1.578316 10.245494
P  4.452087  1.477529  7.354517
P  1.482280  4.436545  7.359125
P  4.513972  4.479062 10.249484
P  1.482280  7.348856  4.446814
P  4.452087  7.344248  1.487798
P  1.372322 10.235225  1.588585
P  4.513972 10.239215  4.489331
P  1.473108  7.344248 10.311370
P  4.447526  7.386581  7.396850
P  1.473108 10.301101  7.354517
P  4.383736 10.369452 10.379721
P  7.404331  1.468357  4.446814
P 10.298928  1.464461  1.474730
P  7.404331  4.436545  1.478626
P 10.380219  4.372968  4.383237
P  7.408939  1.477529 10.311370
P 10.316642  1.468357  7.359125
P  7.409700  4.417562  7.353756
P 10.290932  4.462255 10.333738
P  7.409700  7.343487  4.427831
P 10.316642  7.348856  1.478626
P  7.408939 10.301101  1.487798
P 10.290932 10.323469  4.472524
P  7.366607  7.386581 10.315931
P 10.335625  7.343487  7.353756
P  7.366607 10.305662  7.396850
P 10.274125 10.239215 10.249484
In -0.195684 -0.062907 -0.052638
In  3.013545 -0.062907  3.156591
In  0.057682  2.892956  2.903225
In  3.013545  3.146322 -0.052638
In -0.008194 -0.011828  5.909483
In  2.905719  0.044918  8.764000
In -0.098676  3.049314  8.773752
In  2.962466  2.958832  5.909483
In -0.008194  5.899214 -0.001559
In  2.962466  5.899214  2.969101
In -0.098676  8.763484  3.059583
In  2.905719  8.753731  0.055187
In -0.002997  5.865552  5.875821
In  2.959716  5.906103  8.816069
In  0.017413  8.806038  8.816307
In  2.959716  8.805800  5.916372
In  5.999456  0.044918  0.055187
In  8.853973 -0.011828  2.969101
In  5.989704  3.049314  3.059583
In  8.853973  2.958832 -0.001559
In  5.947387 -0.009078  5.916372
In  8.847085 -0.009078  8.816069
In  5.947150  2.933224  8.816307
In  8.887636  2.953635  5.875821
In  5.947387  5.906103  0.001191
In  8.887636  5.865552  2.963904
In  5.947150  8.806038  2.943493
In  8.847085  8.805800  0.001191
In  5.923545  5.918479  5.928748
In  8.834708  5.918479  8.839912
In  5.874009  8.879178  8.889447
In  8.834708  8.829643  5.928748
In  2.814356  0.136282  0.146551
%ENDBLOCK POSITIONS_ABS

KPOINT_MP_GRID: 4 4 4
KPOINT_MP_OFFSET: 0.125 0.125 0.125
