#######################################################
#CASTEP cell file: /home/eng/phrbqc/GitHub/InPDislocs/Devel/Data_Devel/EOS/CASTEP_Files/ZB_EOS_0.9923/ZB_EOS_0.9923.cell
#Created using the Atomic Simulation Environment (ASE)#
#######################################################

%BLOCK LATTICE_CART
 5.855691  0.000000 -0.000000
 0.000000  5.855691 -0.000000
-0.000000 -0.000000  5.855691
%ENDBLOCK LATTICE_CART

%BLOCK POSITIONS_ABS
P  1.463923  1.463923  4.391768
P  4.391768  1.463923  1.463923
P  1.463923  4.391768  1.463923
P  4.391768  4.391768  4.391768
In  0.000000  0.000000  0.000000
In  2.927846  0.000000  2.927846
In  0.000000  2.927846  2.927846
In  2.927846  2.927846  0.000000
%ENDBLOCK POSITIONS_ABS

KPOINT_MP_GRID: 7 7 7
KPOINT_MP_OFFSET: 0.071429 0.071429 0.071429
