# written by ASE

%BLOCK LATTICE_CART
 5.902021 -0.000004 -0.000004
-0.000004  5.900841  0.000586
-0.000004  0.000586  5.900841
%ENDBLOCK LATTICE_CART

%BLOCK POSITIONS_ABS
P  1.475501  1.475649  4.425776
P  4.426514  1.475354  1.475354
P  1.475501  4.425776  1.475649
P  4.426510  4.426067  4.426067
In  0.000000  0.000000  0.000000
In  2.951009  0.000291  2.950418
In -0.000004  2.950714  2.950713
In  2.951009  2.950419  0.000291
%ENDBLOCK POSITIONS_ABS

FIX_ALL_CELL: TRUE
KPOINT_MP_GRID: 6 6 6
KPOINT_MP_OFFSET: 0.08333333333333333 0.08333333333333333 0.08333333333333333
