#######################################################
#CASTEP cell file: /home/eng/phrbqc/GitHub/InPDislocs/Devel/Data_Devel/EOS/CASTEP_Files/WZ_EOS_0.8111/WZ_EOS_0.8111.cell
#Created using the Atomic Simulation Environment (ASE)#
#######################################################

%BLOCK LATTICE_CART
 3.378071 -0.000035  0.000000
 1.689005  2.925512 -0.000000
 0.000000 -0.000000  5.547523
%ENDBLOCK LATTICE_CART

%BLOCK POSITIONS_ABS
P  1.689007  0.975152 -0.000072
P  3.378066  1.950331  2.773689
In  1.689017  0.975158  2.077231
In  3.378056  1.950325  4.850992
%ENDBLOCK POSITIONS_ABS

KPOINT_MP_GRID: 13 13 7
KPOINT_MP_OFFSET: 0.038462 0.038462 0.071429
