#######################################################
#CASTEP cell file: /home/eng/phrbqc/GitHub/InPDislocs/Devel/Data_Devel/EOS/CASTEP_Files/WZ_EOS_1.099/WZ_EOS_1.099.cell
#Created using the Atomic Simulation Environment (ASE)#
#######################################################

%BLOCK LATTICE_CART
 4.576784 -0.000048  0.000000
 2.288351  3.963635 -0.000000
 0.000000 -0.000000  7.516069
%ENDBLOCK LATTICE_CART

%BLOCK POSITIONS_ABS
P  2.288353  1.321186 -0.000098
P  4.576778  2.642408  3.757937
In  2.288367  1.321194  2.814340
In  4.576764  2.642400  6.572374
%ENDBLOCK POSITIONS_ABS

KPOINT_MP_GRID: 9 9 5
KPOINT_MP_OFFSET: 0.055556 0.055556 0.1
