# written by ASE

%BLOCK LATTICE_CART
11.801682 -0.000008 -0.000008
-0.000008 11.801682 -0.000008
-0.000008 -0.000008 11.801682
%ENDBLOCK LATTICE_CART

%BLOCK POSITIONS_ABS
P  1.493865  1.493865  4.579508
P  4.379848  1.427709  1.526888
P  1.427709  4.379848  1.526888
P  4.720765  4.720765  4.067516
In -0.012027 -0.012027 -0.008125
In  2.870173  0.003213  3.056570
In  0.003213  2.870173  3.056570
In  2.924662  2.924662  0.046721
P  1.466298  1.466298 10.321833
P  4.322023  1.598299  7.265544
P  1.598299  4.322023  7.265544
P  4.386001  4.386001 10.350001
In -0.035025 -0.035026  5.907326
In  2.936652  0.084986  8.747463
In  0.084986  2.936652  8.747463
In  5.768143  5.768143  6.065486
P  1.434392  7.348727  4.432776
P  4.396245  7.435062  1.383929
P  1.463476 10.320903  1.477758
P  4.397672 10.293596  4.453224
In -0.052248  5.845024  0.047703
In  2.899562  5.973594  2.869833
In -0.018222  8.827187  2.937838
In  2.933911  8.909796 -0.078437
P  1.400740  7.357909 10.376799
P  4.330650  7.329315  7.456398
P  1.441660 10.298087  7.393121
P  4.401944 10.377368 10.248066
In  0.022227  5.816195  5.946839
In  2.825665  5.826801  8.900033
In -0.044689  8.820198  8.852939
In  2.916857  8.811625  5.916039
P  7.348727  1.434392  4.432776
P 10.320903  1.463476  1.477759
P  7.435062  4.396245  1.383929
P 10.293596  4.397671  4.453225
In  5.845024 -0.052248  0.047703
In  8.827187 -0.018222  2.937838
In  5.973594  2.899562  2.869833
In  8.909796  2.933910 -0.078437
P  7.357909  1.400740 10.376799
P 10.298087  1.441660  7.393121
P  7.329315  4.330650  7.456398
P 10.377368  4.401943 10.248066
In  5.816195  0.022227  5.946840
In  8.820198 -0.044689  8.852939
In  5.826801  2.825665  8.900033
In  8.811626  2.916857  5.916039
P  7.283609  7.283609  4.511844
P 10.272448  7.336880  1.509392
P  7.336880 10.272448  1.509392
P 10.299183 10.299183  4.404228
In  5.875105  5.875105 -0.009341
In  8.781676  5.865929  2.995135
In  5.865929  8.781676  2.995135
In  8.814156  8.814156  0.015580
P  7.353131  7.353131 10.310522
P 10.298953  7.352201  7.347329
P  7.352201 10.298953  7.347329
P 10.294453 10.294453 10.345116
In  8.834368  5.874698  8.835480
In  5.874699  8.834368  8.835480
In  8.805425  8.805425  5.840284
%ENDBLOCK POSITIONS_ABS

KPOINT_MP_GRID: 4 4 4
KPOINT_MP_OFFSET: 0.125 0.125 0.125
