# written by ASE

%BLOCK LATTICE_CART
11.801682 -0.000008 -0.000008
-0.000008 11.801682 -0.000008
-0.000008 -0.000008 11.801682
%ENDBLOCK LATTICE_CART

%BLOCK POSITIONS_ABS
P  1.496000  1.496000  4.579583
P  4.380631  1.428268  1.526350
P  1.428268  4.380631  1.526350
P  4.714620  4.714620  4.080433
In -0.012521 -0.012521 -0.007355
In  2.871325  0.004046  3.055685
In  0.004046  2.871325  3.055684
In  2.925131  2.925131  0.046887
P  1.466142  1.466142 10.323396
P  4.318000  1.597356  7.262789
P  1.597356  4.318000  7.262789
P  4.386134  4.386134 10.349356
In -0.032880 -0.032880  5.906783
In  2.937280  0.084570  8.749588
In  0.084570  2.937279  8.749588
In  5.775156  5.775156  6.066799
P  1.434973  7.349924  4.432957
P  4.394752  7.430760  1.384861
P  1.463426 10.320438  1.477930
P  4.398177 10.292534  4.451628
In -0.051500  5.846584  0.047761
In  2.900689  5.968249  2.875768
In -0.018727  8.827881  2.938404
In  2.932440  8.906473 -0.077622
P  1.401348  7.355923 10.373396
P  4.332177  7.332257  7.457324
P  1.441766 10.298800  7.393858
P  4.401031 10.377107 10.251559
In  0.022944  5.815922  5.944541
In  2.826963  5.824066  8.895250
In -0.045140  8.819697  8.851969
In  2.917069  8.813016  5.916611
P  7.349924  1.434973  4.432957
P 10.320438  1.463426  1.477930
P  7.430760  4.394752  1.384861
P 10.292534  4.398177  4.451628
In  5.846584 -0.051500  0.047761
In  8.827881 -0.018727  2.938404
In  5.968249  2.900689  2.875769
In  8.906473  2.932440 -0.077622
P  7.355923  1.401348 10.373396
P 10.298801  1.441766  7.393858
P  7.332257  4.332176  7.457324
P 10.377107  4.401031 10.251559
In  5.815922  0.022944  5.944541
In  8.819697 -0.045140  8.851970
In  5.824066  2.826962  8.895250
In  8.813016  2.917069  5.916611
P  7.284084  7.284084  4.507776
P 10.272531  7.337772  1.508962
P  7.337772 10.272531  1.508962
P 10.299274 10.299273  4.405956
In  5.876253  5.876253 -0.012384
In  8.781757  5.864799  2.991522
In  5.864799  8.781757  2.991522
In  8.814990  8.814990  0.015416
P  7.354849  7.354849 10.309848
P 10.299142  7.351422  7.346043
P  7.351422 10.299142  7.346043
P 10.294492 10.294492 10.344505
In  8.837601  5.874792  8.837407
In  5.874792  8.837600  8.837407
In  8.803991  8.803991  5.839740
%ENDBLOCK POSITIONS_ABS

KPOINT_MP_GRID: 4 4 4
KPOINT_MP_OFFSET: 0.125 0.125 0.125
