# written by ASE

%BLOCK LATTICE_CART
 5.899661 -0.000004 -0.000004
-0.000004  5.900841 -0.000594
-0.000004 -0.000594  5.900841
%ENDBLOCK LATTICE_CART

%BLOCK POSITIONS_ABS
P  1.474911  1.474764  4.425481
P  4.424744  1.475059  1.475059
P  1.474911  4.425481  1.474764
P  4.424740  4.425182  4.425182
In  0.000000  0.000000  0.000000
In  2.949828 -0.000299  2.950419
In -0.000004  2.950123  2.950123
In  2.949828  2.950419 -0.000299
%ENDBLOCK POSITIONS_ABS

FIX_ALL_CELL: TRUE
KPOINT_MP_GRID: 6 6 6
KPOINT_MP_OFFSET: 0.08333333333333333 0.08333333333333333 0.08333333333333333
