# written by ASE

%BLOCK LATTICE_CART
14.454049 20.441112  0.000000
14.454049 -20.441112  0.000000
-0.000000  0.000000  4.172525
%ENDBLOCK LATTICE_CART

%BLOCK POSITIONS_ABS
In  9.161873 -3.151213  0.170133
P  8.421961 -0.695032  0.604404
In  5.759060 -3.157025  1.834432
P  6.316282 -0.667971  1.442217
In  9.556835  0.360874  2.588586
P  8.964986  2.853981  2.235175
In 13.238230  0.415140  0.237663
P 12.616727  2.932468  0.132670
In  7.661266  3.655299  0.110174
P  7.445726  6.254786  0.070416
In 11.358612  3.785247  2.208414
P 11.076111  6.345630  2.150408
In  9.821984  7.190208  0.061794
P  9.644129  9.778147  0.044032
In  6.235189  7.169085  2.146471
P 20.514768 -10.686639  2.134668
In  8.437627 10.678937  2.130693
P 22.706208 -7.177078  2.127638
In 12.020948 10.693856  0.019834
P 11.857379 13.277789  0.005958
In 21.452384 -6.335345  0.044666
P 21.231769 -3.769473  0.045750
In 10.639210 14.179366  2.096204
P 24.967786 -3.645504  2.093804
In 16.310953 -2.962693  0.107869
P 15.729103 -0.440491  0.137792
In 12.716626 -2.970646  2.211717
P 12.065559 -0.471574  2.342753
In 16.864755  0.452002  2.216290
P 16.210612  2.960151  2.178513
In 20.438624  0.491328  0.079993
P 19.763385  2.994799  0.042256
In 14.990544  3.838917  0.091852
P 14.690477  6.385919  0.040075
In 18.567594  3.873947  2.128200
P 18.304222  6.412191  2.090167
In 17.067989  7.247770  0.003774
P 16.846237  9.787497 -0.017496
In 13.453182  7.246232  2.125367
P 13.241647  9.809886  2.104989
In 15.634096 10.655658  2.069135
P 15.482812 13.208194  2.037932
In 19.223518 10.644693 -0.045131
P 19.053478 13.166563 -0.079478
In 14.278942 14.078336 -0.048688
P 14.215459 16.645744 -0.086985
In 17.878609 14.047097  2.005447
P  3.342818 -3.852380  1.966939
In 23.624308 -2.864255  0.018912
P 22.910892 -0.342743  0.164439
In 19.939923 -2.942200  2.138347
P 19.336182 -0.419402  2.168353
In 23.890806  0.778603  2.270996
P 23.266486  3.239221  2.083672
In 26.541348  0.593540 -0.340300
P 12.365954 -17.313004 -0.077945
In 22.051480  4.036133 -0.005672
P 21.889646  6.552485 -0.027483
In 25.669631  4.040764  2.017665
P 11.069153 -13.893773  2.010177
In  9.846525 -13.111995 -0.074397
P  9.666146 -10.601531 -0.069995
In 20.653498  7.338943  2.059660
P 20.463025  9.854629  2.040784
In  8.430176 -9.833011  2.013226
P  8.246928 -7.322950  1.978351
In 12.068800 -9.787149 -0.015425
P 11.846145 -7.261327  0.035027
In  7.018920 -6.559644 -0.120470
P  6.862221 -4.062966 -0.227853
In 10.618226 -6.457550  2.124449
P 10.390478 -3.936065  2.244785
In 16.641568 17.480358 -0.117731
P  2.562395 -0.432868 -0.253944
In 13.011866 17.533986  2.001572
P 27.760961 -0.365488  1.778691
In  1.324589  0.413277  1.849344
P 15.973140 -17.471326  1.972442
In  5.039462  0.344465 -0.507518
P  5.194591  2.889766 -0.150367
In 14.804331 -16.578869 -0.105295
P 14.660716 -14.029287 -0.061278
In  3.959641  3.777413  1.945614
P 18.272916 -14.096593  2.038799
In 17.069017 -13.211155 -0.044968
P 16.898386 -10.650037  0.005152
In 13.487462 -13.136343  2.028517
P 13.295811 -10.606903  2.069199
In 15.690743 -9.771326  2.093068
P 15.448388 -7.226245  2.136551
In 19.297049 -9.807741  0.046449
P 19.072956 -7.240659  0.061454
In 14.216312 -6.380796  0.053915
P 13.941232 -3.837225  0.116546
In 17.837273 -6.378436  2.150566
P 17.560906 -3.826946  2.185021
%ENDBLOCK POSITIONS_ABS

KPOINT_MP_GRID: 2 2 8
KPOINT_MP_OFFSET: 0.25 0.25 0.0625
