# written by ASE

%BLOCK LATTICE_CART
14.454049 20.441112  0.000000
14.454049 -20.441112  0.000000
-0.000000  0.000000  4.172525
%ENDBLOCK LATTICE_CART

%BLOCK POSITIONS_ABS
In  9.167158 -3.154746  0.161610
P  8.426589 -0.698470  0.582292
In  5.765203 -3.148299  1.840891
P  6.321410 -0.660749  1.443142
In  9.546931  0.358508  2.573392
P  8.958805  2.852996  2.225302
In 13.229635  0.414727  0.246405
P 12.610139  2.933211  0.134628
In  7.655045  3.655373  0.101073
P  7.442915  6.255256  0.068442
In 11.352817  3.786710  2.210010
P 11.073500  6.347320  2.152979
In  9.819371  7.191083  0.064208
P  9.643326  9.778714  0.046108
In  6.232130  7.169473  2.144726
P 20.513751 -10.685786  2.134290
In  8.436633 10.679587  2.132710
P 22.707814 -7.176733  2.130893
In 12.022148 10.689900  0.021850
P 11.862396 13.272671  0.009617
In 21.455107 -6.331742  0.048063
P 21.244589 -3.765602  0.049093
In 10.643802 14.171385  2.100541
P 24.982799 -3.651902  2.104440
In 16.317695 -2.958599  0.109534
P 15.725571 -0.436961  0.147689
In 12.719637 -2.971905  2.209965
P 12.060654 -0.474229  2.350917
In 16.863869  0.455551  2.226635
P 16.207349  2.964081  2.183180
In 20.444587  0.499916  0.103688
P 19.756883  3.002872  0.049757
In 14.985915  3.839170  0.096056
P 14.688146  6.386613  0.042571
In 18.562975  3.883655  2.134752
P 18.300733  6.421198  2.093108
In 17.063898  7.253877  0.006491
P 16.844998  9.793146 -0.016979
In 13.451775  7.245208  2.127623
P 13.242866  9.808524  2.106927
In 15.633499 10.660583  2.069570
P 15.485694 13.212517  2.035923
In 19.224324 10.645736 -0.046124
P 19.056089 13.167899 -0.080713
In 14.281680 14.080538 -0.051014
P 14.222492 16.647198 -0.091650
In 17.882618 14.049658  2.004068
P  3.348450 -3.848971  1.967071
In 23.641017 -2.860900  0.032264
P 22.904724 -0.347957  0.222988
In 19.954175 -2.931504  2.142191
P 19.337134 -0.410842  2.190349
In 23.904353  0.767474  2.329280
P 23.263420  3.229546  2.089920
In 26.508269  0.582997 -0.404711
P 12.362389 -17.324246 -0.087951
In 22.052111  4.032731 -0.001104
P 21.889229  6.551364 -0.026354
In 25.667359  4.034088  2.007879
P 11.068014 -13.898926  2.002833
In  9.846783 -13.115668 -0.081167
P  9.668131 -10.604374 -0.072868
In 20.653731  7.339310  2.060767
P 20.463845  9.855223  2.039813
In  8.431874 -9.834982  2.010722
P  8.248771 -7.324540  1.976901
In 12.071298 -9.790470 -0.017891
P 11.849632 -7.264275  0.032548
In  7.021759 -6.559108 -0.121868
P  6.863851 -4.062319 -0.222800
In 10.620763 -6.462072  2.121756
P 10.395338 -3.940620  2.236543
In 16.647275 17.483816 -0.117748
P  2.552196 -0.429195 -0.268560
In 13.022282 17.541570  1.996271
P 27.751094 -0.363819  1.721847
In  1.306259  0.411791  1.832642
P 15.968539 -17.474886  1.968375
In  5.033807  0.341106 -0.506993
P  5.188674  2.887620 -0.150483
In 14.794685 -16.587961 -0.109410
P 14.658069 -14.035902 -0.065129
In  3.954704  3.774654  1.945096
P 18.270520 -14.098813  2.037367
In 17.065672 -13.214645 -0.046331
P 16.898828 -10.652058  0.004262
In 13.486029 -13.141796  2.024530
P 13.297835 -10.611024  2.066787
In 15.692126 -9.771947  2.092164
P 15.452230 -7.225659  2.136119
In 19.296520 -9.805559  0.045991
P 19.075326 -7.237454  0.062170
In 14.219279 -6.380884  0.053354
P 13.947504 -3.836611  0.114992
In 17.840359 -6.372479  2.151108
P 17.572710 -3.819511  2.186378
%ENDBLOCK POSITIONS_ABS

KPOINT_MP_GRID: 2 2 8
KPOINT_MP_OFFSET: 0.25 0.25 0.0625
