#######################################################
#CASTEP cell file: /home/eng/phrbqc/GitHub/InPDislocs/Devel/Data_Devel/EOS/CASTEP_Files/WZ_EOS_0.9764/WZ_EOS_0.9764.cell
#Created using the Atomic Simulation Environment (ASE)#
#######################################################

%BLOCK LATTICE_CART
 4.066221 -0.000042  0.000000
 2.033074  3.521472 -0.000000
 0.000000 -0.000000  6.677614
%ENDBLOCK LATTICE_CART

%BLOCK POSITIONS_ABS
P  2.033076  1.173801 -0.000087
P  4.066216  2.347635  3.338720
In  2.033088  1.173808  2.500386
In  4.066203  2.347627  5.839193
%ENDBLOCK POSITIONS_ABS

KPOINT_MP_GRID: 11 11 5
KPOINT_MP_OFFSET: 0.045455 0.045455 0.1
