# written by ASE

%BLOCK LATTICE_CART
11.801682 -0.000008 -0.000008
-0.000008 11.801682 -0.000008
-0.000008 -0.000008 11.801682
%ENDBLOCK LATTICE_CART

%BLOCK POSITIONS_ABS
P  1.562554  1.562554  4.623600
P  4.421965  1.502039  1.593231
P  1.502039  4.421965  1.593231
P  5.179346  5.179346  4.172653
In  0.014943  0.014943 -0.031999
In  2.868141  0.041294  3.074945
In  0.041294  2.868141  3.074945
In  2.976065  2.976065  0.071339
P  1.518857  1.518857 10.327684
P  4.486910  1.708238  7.276557
P  1.708238  4.486910  7.276557
P  4.411281  4.411281 10.329900
In -0.027511 -0.027511  5.819006
In  2.959904  0.156510  8.711840
In  0.156510  2.959904  8.711840
In  4.200656  4.200656  6.302103
P  1.503007  7.419746  4.407278
P  4.414173  7.463131  1.322680
P  1.482231 10.363923  1.476791
P  4.403102 10.318127  4.460875
In -0.049933  5.851098  0.101118
In  3.026646  6.035740  2.898089
In -0.008729  8.853843  2.923215
In  2.958940  8.981436 -0.099227
P  1.352335  7.443720 10.438125
P  4.398925  7.184286  7.344230
P  1.448929 10.349479  7.380755
P  4.436098 10.424214 10.201244
In  0.073911  5.878201  5.862407
In  2.845787  6.011234  8.994050
In -0.062516  8.852037  8.824995
In  2.980335  8.817212  5.993893
P  7.419746  1.503007  4.407278
P 10.363923  1.482231  1.476792
P  7.463131  4.414173  1.322680
P 10.318127  4.403102  4.460875
In  5.851098 -0.049933  0.101118
In  8.853843 -0.008729  2.923215
In  6.035740  3.026646  2.898089
In  8.981436  2.958940 -0.099227
P  7.443720  1.352335 10.438125
P 10.349479  1.448929  7.380755
P  7.184286  4.398925  7.344230
P 10.424215  4.436098 10.201244
In  5.878201  0.073911  5.862408
In  8.852037 -0.062516  8.824995
In  6.011234  2.845786  8.994050
In  8.817212  2.980335  5.993893
P  6.842230  6.842230  4.477779
P 10.244442  7.339904  1.550022
P  7.339904 10.244442  1.550022
P 10.240367 10.240367  4.414594
In  5.907767  5.907767 -0.062325
In  8.748837  5.832337  3.012641
In  5.832337  8.748837  3.012640
In  8.812836  8.812836  0.007910
P  7.376554  7.376554 10.254795
P 10.308378  7.325642  7.318109
P  7.325642 10.308378  7.318109
P 10.306193 10.306193 10.350329
In  8.782023  5.837467  8.744758
In  5.837468  8.782023  8.744758
In  8.682185  8.682185  5.863211
%ENDBLOCK POSITIONS_ABS

KPOINT_MP_GRID: 4 4 4
KPOINT_MP_OFFSET: 0.125 0.125 0.125
