# written by ASE

%BLOCK LATTICE_CART
11.801682 -0.000008 -0.000008
-0.000008 11.801682 -0.000008
-0.000008 -0.000008 11.801682
%ENDBLOCK LATTICE_CART

%BLOCK POSITIONS_ABS
P  1.562552  1.562552  4.629259
P  4.420178  1.497545  1.587363
P  1.497545  4.420178  1.587363
P  5.159218  5.159218  4.155248
In  0.015152  0.015152 -0.032807
In  2.868432  0.044838  3.077796
In  0.044838  2.868432  3.077796
In  2.975220  2.975220  0.067593
P  1.517647  1.517647 10.324788
P  4.490291  1.707087  7.281727
P  1.707087  4.490291  7.281727
P  4.412777  4.412777 10.332280
In -0.029459 -0.029459  5.820029
In  2.959665  0.153306  8.709869
In  0.153307  2.959665  8.709869
In  4.207849  4.207849  6.309250
P  1.498341  7.418562  4.405944
P  4.416022  7.466747  1.328560
P  1.484828 10.367562  1.477227
P  4.405233 10.318484  4.458741
In -0.052843  5.850205  0.097682
In  3.017944  6.036987  2.892224
In -0.005253  8.855045  2.919239
In  2.962797  8.983220 -0.095865
P  1.352478  7.446854 10.443743
P  4.394767  7.180730  7.341590
P  1.450135 10.346472  7.377844
P  4.436995 10.421475 10.197643
In  0.070832  5.878155  5.866060
In  2.844802  6.014889  9.000480
In -0.058968  8.851965  8.825831
In  2.981964  8.814650  5.987038
P  7.418562  1.498341  4.405944
P 10.367562  1.484828  1.477227
P  7.466747  4.416022  1.328560
P 10.318484  4.405233  4.458742
In  5.850205 -0.052843  0.097682
In  8.855045 -0.005253  2.919239
In  6.036987  3.017944  2.892224
In  8.983220  2.962797 -0.095865
P  7.446854  1.352478 10.443743
P 10.346472  1.450134  7.377844
P  7.180730  4.394766  7.341590
P 10.421476  4.436995 10.197643
In  5.878155  0.070831  5.866060
In  8.851965 -0.058968  8.825831
In  6.014889  2.844802  9.000480
In  8.814650  2.981963  5.987038
P  6.843059  6.843059  4.496742
P 10.245269  7.341374  1.548179
P  7.341374 10.245269  1.548179
P 10.243827 10.243827  4.408470
In  5.906492  5.906492 -0.052279
In  8.746444  5.842710  3.020153
In  5.842710  8.746444  3.020153
In  8.812267  8.812267  0.004110
P  7.372588  7.372588 10.255634
P 10.308684  7.328712  7.320011
P  7.328712 10.308684  7.320011
P 10.306967 10.306967 10.348452
In  8.778165  5.837499  8.740887
In  5.837499  8.778165  8.740887
In  8.690593  8.690593  5.859116
%ENDBLOCK POSITIONS_ABS

KPOINT_MP_GRID: 4 4 4
KPOINT_MP_OFFSET: 0.125 0.125 0.125
