# written by ASE

%BLOCK LATTICE_CART
11.801682 -0.000008 -0.000008
-0.000008 11.801682 -0.000008
-0.000008 -0.000008 11.801682
%ENDBLOCK LATTICE_CART

%BLOCK POSITIONS_ABS
P  1.468353  1.468353  4.394201
P  4.394201  1.468353  1.468353
P  1.468353  4.394201  1.468353
P  5.925895  5.925895  5.925895
In -0.006569 -0.006569 -0.006569
In  2.926625 -0.027829  2.926625
In -0.027829  2.926625  2.926625
In  2.926625  2.926625 -0.027829
P  1.459513  1.459513 10.286220
P  4.403173  1.563840  7.273213
P  1.563840  4.403173  7.273213
P  4.431323  4.431323 10.327558
In -0.010342 -0.010342  5.904181
In  2.973018  0.028497  8.795477
In  0.028498  2.973018  8.795477
In  3.102393  3.102393  5.574317
P  1.563840  7.273213  4.403173
P  4.403173  7.273213  1.563840
P  1.459513 10.286220  1.459513
P  4.431323 10.327558  4.431323
In -0.010342  5.904181 -0.010342
In  3.102393  5.574318  3.102393
In  0.028498  8.795477  2.973017
In  2.973018  8.795477  0.028497
P  1.527982  7.340243 10.294904
P  4.700485  7.277350  7.277350
P  1.527982 10.294905  7.340243
P  4.419109 10.298393 10.298393
In  0.018698  5.905033  5.905033
In  3.029642  5.882141  8.760922
In  0.062795  8.874088  8.874087
In  3.029642  8.760922  5.882141
P  7.273213  1.563840  4.403173
P 10.286220  1.459513  1.459513
P  7.273213  4.403173  1.563840
P 10.327558  4.431323  4.431323
In  5.904181 -0.010342 -0.010342
In  8.795477  0.028498  2.973018
In  5.574318  3.102393  3.102393
In  8.795477  2.973018  0.028498
P  7.340244  1.527982 10.294904
P 10.294905  1.527982  7.340243
P  7.277350  4.700484  7.277350
P 10.298393  4.419108 10.298393
In  5.905033  0.018698  5.905033
In  8.874088  0.062795  8.874088
In  5.882141  3.029642  8.760922
In  8.760922  3.029642  5.882141
P  7.277350  7.277350  4.700484
P 10.294905  7.340243  1.527982
P  7.340244 10.294905  1.527982
P 10.298393 10.298393  4.419108
In  5.905033  5.905033  0.018698
In  8.760922  5.882141  3.029642
In  5.882141  8.760922  3.029642
In  8.874088  8.874088  0.062795
P  7.401650  7.401649 10.382488
P 10.382488  7.401649  7.401649
P  7.401650 10.382488  7.401649
P 10.325010 10.325009 10.325009
In  8.865546  5.988522  8.865545
In  5.988522  8.865545  8.865545
In  8.865546  8.865546  5.988522
%ENDBLOCK POSITIONS_ABS

FIX_ALL_CELL: TRUE
KPOINT_MP_GRID: 4 4 4
KPOINT_MP_OFFSET: 0.125 0.125 0.125
