# written by ASE

%BLOCK LATTICE_CART
11.801682 -0.000008 -0.000008
-0.000008 11.801682 -0.000008
-0.000008 -0.000008 11.801682
%ENDBLOCK LATTICE_CART

%BLOCK POSITIONS_ABS
P  1.610199  1.610199  4.561244
P  4.438850  1.498172  1.525587
P  1.498172  4.438850  1.525587
P  4.795686  4.795686  4.411068
In  0.022894  0.022894 -0.012330
In  2.933194  0.053599  3.029440
In  0.053600  2.933194  3.029440
In  2.981520  2.981520  0.033338
P  1.510573  1.510573 10.326030
P  4.494616  1.565758  7.353330
P  1.565758  4.494615  7.353330
P  4.432318  4.432318 10.324824
In  0.024104  0.024104  5.862574
In  2.965156  0.080840  8.781735
In  0.080840  2.965156  8.781735
In  3.320859  3.320859  5.882886
P  1.512437  7.409117  4.398167
P  4.445256  7.438882  1.403321
P  1.494978 10.375259  1.491220
P  4.426139 10.325837  4.441734
In -0.011216  5.897923  0.051613
In  3.041627  5.944644  2.939049
In  0.002552  8.871552  2.940647
In  2.971902  8.936044 -0.040099
P  1.434901  7.426569 10.379086
P  4.480606  7.281114  7.324817
P  1.476102 10.343882  7.372909
P  4.444814 10.392455 10.266036
In  0.036620  5.921273  5.870035
In  2.954802  5.993284  8.898033
In -0.025463  8.862462  8.833371
In  3.000763  8.816928  5.957336
P  7.409117  1.512437  4.398167
P 10.375259  1.494978  1.491220
P  7.438882  4.445256  1.403322
P 10.325837  4.426139  4.441734
In  5.897923 -0.011216  0.051613
In  8.871552  0.002552  2.940648
In  5.944644  3.041627  2.939049
In  8.936044  2.971902 -0.040099
P  7.426569  1.434900 10.379086
P 10.343882  1.476102  7.372909
P  7.281114  4.480606  7.324817
P 10.392455  4.444814 10.266036
In  5.921273  0.036620  5.870035
In  8.862462 -0.025463  8.833371
In  5.993284  2.954802  8.898033
In  8.816928  3.000763  5.957336
P  7.129558  7.129558  4.559604
P 10.291047  7.369198  1.519345
P  7.369198 10.291047  1.519345
P 10.297069 10.297069  4.440468
In  5.924631  5.924631 -0.044818
In  8.776165  5.913924  3.030639
In  5.913924  8.776165  3.030639
In  8.832644  8.832644  0.003994
P  7.392488  7.392487 10.267195
P 10.320845  7.378511  7.336544
P  7.378512 10.320845  7.336544
P 10.327180 10.327180 10.346545
In  8.829788  5.868724  8.773347
In  5.868724  8.829788  8.773347
In  8.714867  8.714867  5.828714
%ENDBLOCK POSITIONS_ABS

KPOINT_MP_GRID: 4 4 4
KPOINT_MP_OFFSET: 0.125 0.125 0.125
