# written by ASE

%BLOCK LATTICE_CART
11.801682 -0.000008 -0.000008
-0.000008 11.801682 -0.000008
-0.000008 -0.000008 11.801682
%ENDBLOCK LATTICE_CART

%BLOCK POSITIONS_ABS
P  1.609542  1.609542  4.559181
P  4.439748  1.500492  1.527064
P  1.500492  4.439748  1.527064
P  4.797211  4.797211  4.418765
In  0.023070  0.023070 -0.011996
In  2.933390  0.054045  3.027601
In  0.054045  2.933390  3.027601
In  2.981743  2.981743  0.033822
P  1.510721  1.510721 10.326758
P  4.492847  1.563705  7.351991
P  1.563705  4.492847  7.351991
P  4.432215  4.432214 10.324062
In  0.025312  0.025312  5.863706
In  2.965076  0.080465  8.783347
In  0.080465  2.965076  8.783347
In  3.316501  3.316501  5.880483
P  1.511990  7.409862  4.398517
P  4.444072  7.438016  1.402945
P  1.494543 10.374940  1.490971
P  4.425378 10.327178  4.441094
In -0.009311  5.898581  0.052323
In  3.044168  5.943834  2.943228
In  0.001665  8.873094  2.941863
In  2.970258  8.935002 -0.040868
P  1.435743  7.425327 10.375881
P  4.483289  7.281990  7.323024
P  1.476812 10.344253  7.373553
P  4.444683 10.392844 10.268173
In  0.036148  5.921587  5.869447
In  2.956222  5.991166  8.893637
In -0.026052  8.863201  8.833041
In  3.000658  8.817349  5.957266
P  7.409862  1.511990  4.398517
P 10.374940  1.494543  1.490971
P  7.438016  4.444072  1.402945
P 10.327178  4.425378  4.441095
In  5.898581 -0.009311  0.052323
In  8.873094  0.001665  2.941863
In  5.943834  3.044168  2.943228
In  8.935002  2.970258 -0.040868
P  7.425327  1.435743 10.375881
P 10.344253  1.476812  7.373553
P  7.281990  4.483289  7.323025
P 10.392845  4.444683 10.268173
In  5.921587  0.036148  5.869448
In  8.863201 -0.026052  8.833041
In  5.991166  2.956222  8.893638
In  8.817349  3.000658  5.957266
P  7.126945  7.126945  4.556040
P 10.292139  7.369732  1.519645
P  7.369732 10.292139  1.519645
P 10.296461 10.296461  4.443641
In  5.924664  5.924664 -0.045258
In  8.777342  5.912697  3.028880
In  5.912697  8.777342  3.028880
In  8.833481  8.833481  0.005451
P  7.393319  7.393319 10.268809
P 10.320363  7.378777  7.336133
P  7.378777 10.320363  7.336133
P 10.327444 10.327443 10.347033
In  8.831043  5.869351  8.774933
In  5.869351  8.831043  8.774933
In  8.710694  8.710694  5.827939
%ENDBLOCK POSITIONS_ABS

KPOINT_MP_GRID: 4 4 4
KPOINT_MP_OFFSET: 0.125 0.125 0.125
