#######################################################
#CASTEP cell file: /home/eng/phrbqc/GitHub/InPDislocs/Devel/Data_Devel/EOS/CASTEP_Files/WZ_EOS_0.7418/WZ_EOS_0.7418.cell
#Created using the Atomic Simulation Environment (ASE)#
#######################################################

%BLOCK LATTICE_CART
 3.089492 -0.000032  0.000000
 1.544718  2.675594 -0.000000
 0.000000 -0.000000  5.073613
%ENDBLOCK LATTICE_CART

%BLOCK POSITIONS_ABS
P  1.544720  0.891848 -0.000066
P  3.089487  1.783719  2.536741
In  1.544729  0.891853  1.899779
In  3.089478  1.783714  4.436586
%ENDBLOCK POSITIONS_ABS

KPOINT_MP_GRID: 13 13 7
KPOINT_MP_OFFSET: 0.038462 0.038462 0.071429
