# written by ASE

%BLOCK LATTICE_CART
11.801682 -0.000008 -0.000008
-0.000008 11.801682 -0.000008
-0.000008 -0.000008 11.801682
%ENDBLOCK LATTICE_CART

%BLOCK POSITIONS_ABS
P  3.758805  3.758805  4.112244
P  4.433151  1.402962  1.327597
P  1.402962  4.433151  1.327597
In -0.013281 -0.013281  0.041148
In  2.917895  0.128463  2.961702
In  0.128463  2.917895  2.961702
In  2.949699  2.949699 -0.068965
P  1.443124  1.443124 10.322591
P  4.471645  1.395076  7.512560
P  1.395076  4.471645  7.512560
P  4.447661  4.447661 10.311126
In  0.119248  0.119248  5.680568
In  2.908140 -0.086456  8.895557
In -0.086456  2.908139  8.895557
In  2.969905  2.969905  6.294111
P  1.468741  7.349023  4.435967
P  4.402836  7.310407  1.575688
P  1.460034 10.349310  1.550530
P  4.388719 10.381468  4.424246
In -0.067006  5.919335 -0.112894
In  2.832982  5.801425  2.935915
In -0.024612  8.824168  2.962233
In  2.942925  8.831106  0.114876
P  1.468940  7.446194 10.335558
P  4.412923  7.320441  7.302895
P  1.450966 10.366802  7.297573
P  4.398187 10.217637 10.323633
In -0.018259  5.905523  5.921339
In  2.953342  5.962218  8.895701
In -0.002335  8.900149  8.819181
In  2.946173  8.858110  5.890988
P  7.349023  1.468741  4.435967
P 10.349310  1.460034  1.550530
P  7.310407  4.402836  1.575688
P 10.381468  4.388719  4.424246
In  5.919335 -0.067006 -0.112894
In  8.824168 -0.024612  2.962233
In  5.801425  2.832982  2.935915
In  8.831106  2.942925  0.114876
P  7.446194  1.468940 10.335558
P 10.366802  1.450966  7.297573
P  7.320441  4.412922  7.302895
P 10.217637  4.398187 10.323633
In  5.905523 -0.018259  5.921339
In  8.900150 -0.002336  8.819181
In  5.962218  2.953342  8.895701
In  8.858110  2.946173  5.890988
P  7.356578  7.356578  4.430178
P 10.316801  7.354636  1.458482
P  7.354637 10.316801  1.458482
P 10.314857 10.314857  4.429388
In  5.891264  5.891264  0.050793
In  8.868635  5.886812  2.973663
In  5.886812  8.868635  2.973663
In  8.841488  8.841488 -0.003906
P  7.352755  7.352755 10.344518
P 10.312859  7.369706  7.405043
P  7.369706 10.312858  7.405043
P 10.328126 10.328126 10.337141
In  5.779955  5.779955  5.747522
In  8.783650  5.889596  8.822321
In  5.889596  8.783650  8.822321
In  8.843697  8.843697  5.931859
%ENDBLOCK POSITIONS_ABS

KPOINT_MP_GRID: 4 4 4
KPOINT_MP_OFFSET: 0.125 0.125 0.125
