# written by ASE

%BLOCK LATTICE_CART
11.801682 -0.000008 -0.000008
-0.000008 11.801682 -0.000008
-0.000008 -0.000008 11.801682
%ENDBLOCK LATTICE_CART

%BLOCK POSITIONS_ABS
P  3.756339  3.756338  4.107137
P  4.432641  1.402868  1.327994
P  1.402868  4.432641  1.327994
In -0.012119 -0.012119  0.041600
In  2.919703  0.122464  2.959050
In  0.122464  2.919703  2.959050
In  2.949137  2.949137 -0.068100
P  1.443426  1.443425 10.321718
P  4.471670  1.396005  7.512571
P  1.396005  4.471670  7.512571
P  4.446855  4.446855 10.311448
In  0.116699  0.116699  5.681399
In  2.908377 -0.086481  8.894567
In -0.086481  2.908377  8.894567
In  2.972901  2.972901  6.292759
P  1.469916  7.349576  4.436022
P  4.403174  7.311661  1.575300
P  1.458819 10.347343  1.549977
P  4.389504 10.378963  4.424772
In -0.066155  5.918658 -0.112277
In  2.833623  5.802434  2.934866
In -0.025508  8.822962  2.962824
In  2.942981  8.831204  0.113508
P  1.468432  7.446347 10.335856
P  4.413938  7.321722  7.304682
P  1.449797 10.365988  7.298567
P  4.398422 10.218159 10.323435
In -0.015913  5.903850  5.919962
In  2.953382  5.963073  8.896715
In -0.003267  8.899514  8.819964
In  2.946095  8.858745  5.893285
P  7.349576  1.469916  4.436022
P 10.347343  1.458819  1.549977
P  7.311661  4.403174  1.575300
P 10.378963  4.389504  4.424772
In  5.918658 -0.066155 -0.112277
In  8.822962 -0.025508  2.962824
In  5.802434  2.833623  2.934866
In  8.831204  2.942981  0.113508
P  7.446347  1.468431 10.335856
P 10.365988  1.449797  7.298568
P  7.321722  4.413938  7.304682
P 10.218159  4.398422 10.323436
In  5.903850 -0.015913  5.919962
In  8.899514 -0.003267  8.819964
In  5.963074  2.953382  8.896715
In  8.858745  2.946095  5.893285
P  7.357712  7.357711  4.430114
P 10.317042  7.354480  1.458008
P  7.354480 10.317042  1.458008
P 10.314289 10.314289  4.428983
In  5.889966  5.889966  0.051688
In  8.869103  5.888252  2.973368
In  5.888252  8.869103  2.973368
In  8.841541  8.841541 -0.003834
P  7.352409  7.352409 10.345886
P 10.314162  7.368730  7.404315
P  7.368730 10.314162  7.404315
P 10.328413 10.328413 10.338117
In  5.781677  5.781677  5.747581
In  8.784625  5.890840  8.823486
In  5.890840  8.784624  8.823486
In  8.844162  8.844162  5.932891
%ENDBLOCK POSITIONS_ABS

KPOINT_MP_GRID: 4 4 4
KPOINT_MP_OFFSET: 0.125 0.125 0.125
