#######################################################
#CASTEP cell file: /home/eng/phrbqc/GitHub/InPDislocs/Devel/Data_Devel/EOS/CASTEP_Files/WZ_EOS_0.7792/WZ_EOS_0.7792.cell
#Created using the Atomic Simulation Environment (ASE)#
#######################################################

%BLOCK LATTICE_CART
 3.244881 -0.000034  0.000000
 1.622411  2.810165 -0.000000
 0.000000 -0.000000  5.328795
%ENDBLOCK LATTICE_CART

%BLOCK POSITIONS_ABS
P  1.622413  0.936704 -0.000069
P  3.244876  1.873433  2.664328
In  1.622423  0.936710  1.995330
In  3.244866  1.873427  4.659728
%ENDBLOCK POSITIONS_ABS

KPOINT_MP_GRID: 13 13 7
KPOINT_MP_OFFSET: 0.038462 0.038462 0.071429
