# written by ASE

%BLOCK LATTICE_CART
11.801682 -0.000008 -0.000008
-0.000008 11.801682 -0.000008
-0.000008 -0.000008 11.801682
%ENDBLOCK LATTICE_CART

%BLOCK POSITIONS_ABS
P  4.389947  4.389947  4.426154
P  4.389957  1.474678  1.510877
P  1.474678  4.389957  1.510877
In -0.002538 -0.002538  0.002708
In  2.834413  0.116012  3.066434
In  0.116012  2.834413  3.066434
In  2.952958  2.952958  0.002702
P  1.475202  1.475202 10.326468
P  4.389947  1.475732  7.340369
P  1.475732  4.389947  7.340369
P  4.424756  4.424756 10.322692
In  0.116012  0.116011  5.784835
In  2.952957 -0.002546  8.848554
In -0.002546  2.952957  8.848554
In  2.834385  2.834385  5.784807
P  1.475202  7.376046  4.425624
P  4.424761  7.379820  1.476065
P  1.475732 10.362145  1.510877
P  4.389950 10.362137  4.425093
In  0.005253  5.884536  0.016302
In  2.952957  5.898132  2.947876
In -0.002545  8.853967  2.947877
In  2.945158  8.867567  0.016300
P  1.475199  7.376042 10.326464
P  4.424756  7.372269  7.375178
P  1.474671 10.362137  7.340372
P  4.424753 10.327325 10.330234
In -0.002546  5.898132  5.903379
In  2.945154  5.884525  8.834947
In  0.005246  8.867562  8.834951
In  2.952950  8.853962  5.903373
P  7.376046  1.475202  4.425624
P 10.362144  1.475732  1.510877
P  7.379820  4.424761  1.476065
P 10.362137  4.389950  4.425093
In  5.884536  0.005253  0.016302
In  8.853967 -0.002545  2.947877
In  5.898132  2.952957  2.947876
In  8.867567  2.945158  0.016300
P  7.376042  1.475199 10.326464
P 10.362137  1.474671  7.340372
P  7.372270  4.424756  7.375178
P 10.327325  4.424753 10.330234
In  5.898132 -0.002546  5.903379
In  8.867562  0.005245  8.834951
In  5.884525  2.945154  8.834947
In  8.853962  2.952950  5.903373
P  7.376042  7.376042  4.425621
P 10.327330  7.372271  1.476063
P  7.372271 10.327330  1.476063
P 10.362137 10.362137  4.426147
In  5.902096  5.902096 -0.001266
In  8.867562  5.884529  2.955668
In  5.884529  8.867562  2.955668
In  8.849998  8.849998 -0.001269
P  7.376039  7.376039 10.326461
P 10.327325  7.379812  7.375175
P  7.379812 10.327325  7.375175
P 10.327322 10.327322 10.322686
In  5.884525  5.884525  5.895577
In  8.849994  5.902088  8.852510
In  5.902088  8.849993  8.852510
In  8.867559  8.867559  5.895572
%ENDBLOCK POSITIONS_ABS

KPOINT_MP_GRID: 4 4 4
KPOINT_MP_OFFSET: 0.125 0.125 0.125
