# written by ASE

%BLOCK LATTICE_CART
11.801682 -0.000008 -0.000008
-0.000008 11.801682 -0.000008
-0.000008 -0.000008 11.801682
%ENDBLOCK LATTICE_CART

%BLOCK POSITIONS_ABS
P  4.389261  4.389261  4.426430
P  4.389269  1.474402  1.511565
P  1.474402  4.389270  1.511565
In -0.002656 -0.002656  0.002695
In  2.832018  0.118405  3.068827
In  0.118404  2.832018  3.068827
In  2.953076  2.953076  0.002690
P  1.475202  1.475202 10.326468
P  4.389261  1.476008  7.339683
P  1.476008  4.389261  7.339683
P  4.424791  4.424791 10.322525
In  0.118404  0.118404  5.782440
In  2.953074 -0.002664  8.848566
In -0.002664  2.953074  8.848566
In  2.831997  2.831997  5.782419
P  1.475202  7.376046  4.425624
P  4.424795  7.379987  1.476031
P  1.476008 10.362831  1.511564
P  4.389262 10.362824  4.424816
In  0.005401  5.884241  0.016598
In  2.953074  5.898144  2.947758
In -0.002664  8.853955  2.947759
In  2.945010  8.867863  0.016595
P  1.475199  7.376042 10.326464
P  4.424791  7.372102  7.375213
P  1.474394 10.362824  7.339684
P  4.424788 10.327290 10.330401
In -0.002664  5.898144  5.903496
In  2.945007  5.884230  8.834652
In  0.005393  8.867858  8.834655
In  2.953069  8.853949  5.903491
P  7.376046  1.475202  4.425624
P 10.362831  1.476008  1.511564
P  7.379987  4.424795  1.476031
P 10.362824  4.389262  4.424816
In  5.884241  0.005401  0.016598
In  8.853955 -0.002664  2.947759
In  5.898144  2.953074  2.947758
In  8.867863  2.945010  0.016595
P  7.376042  1.475199 10.326465
P 10.362824  1.474394  7.339684
P  7.372103  4.424791  7.375213
P 10.327290  4.424788 10.330401
In  5.898144 -0.002664  5.903496
In  8.867858  0.005393  8.834655
In  5.884230  2.945006  8.834652
In  8.853950  2.953068  5.903491
P  7.376042  7.376042  4.425621
P 10.327295  7.372104  1.476028
P  7.372104 10.327295  1.476028
P 10.362824 10.362824  4.426423
In  5.902136  5.902136 -0.001307
In  8.867858  5.884233  2.955816
In  5.884233  8.867858  2.955816
In  8.849958  8.849958 -0.001309
P  7.376039  7.376039 10.326461
P 10.327290  7.379979  7.375210
P  7.379979 10.327290  7.375210
P 10.327288 10.327287 10.322518
In  5.884230  5.884230  5.895429
In  8.849953  5.902129  8.852551
In  5.902129  8.849953  8.852551
In  8.867855  8.867855  5.895425
%ENDBLOCK POSITIONS_ABS

KPOINT_MP_GRID: 4 4 4
KPOINT_MP_OFFSET: 0.125 0.125 0.125
