#######################################################
#CASTEP cell file: /home/eng/phrbqc/GitHub/InPDislocs/Devel/Data_Devel/EOS/CASTEP_Files/WZ_EOS_0.7152/WZ_EOS_0.7152.cell
#Created using the Atomic Simulation Environment (ASE)#
#######################################################

%BLOCK LATTICE_CART
 2.978500 -0.000031  0.000000
 1.489223  2.579472 -0.000000
 0.000000 -0.000000  4.891340
%ENDBLOCK LATTICE_CART

%BLOCK POSITIONS_ABS
P  1.489225  0.859807 -0.000064
P  2.978496  1.719638  2.445607
In  1.489234  0.859813  1.831528
In  2.978487  1.719633  4.277198
%ENDBLOCK POSITIONS_ABS

KPOINT_MP_GRID: 13 13 7
KPOINT_MP_OFFSET: 0.038462 0.038462 0.071429
