#######################################################
#CASTEP cell file: /home/eng/phrbqc/GitHub/InPDislocs/Devel/Data_Devel/EOS/CASTEP_Files/ZB_EOS_1.1788/ZB_EOS_1.1788.cell
#Created using the Atomic Simulation Environment (ASE)#
#######################################################

%BLOCK LATTICE_CART
 6.956525  0.000000 -0.000000
 0.000000  6.956525 -0.000000
-0.000000 -0.000000  6.956525
%ENDBLOCK LATTICE_CART

%BLOCK POSITIONS_ABS
P  1.739131  1.739131  5.217393
P  5.217393  1.739131  1.739131
P  1.739131  5.217393  1.739131
P  5.217393  5.217393  5.217393
In  0.000000  0.000000  0.000000
In  3.478262  0.000000  3.478262
In  0.000000  3.478262  3.478262
In  3.478262  3.478262  0.000000
%ENDBLOCK POSITIONS_ABS

KPOINT_MP_GRID: 5 5 5
KPOINT_MP_OFFSET: 0.1 0.1 0.1
