# written by ASE

%BLOCK LATTICE_CART
11.801682 -0.000008 -0.000008
-0.000008 11.801682 -0.000008
-0.000008 -0.000008 11.801682
%ENDBLOCK LATTICE_CART

%BLOCK POSITIONS_ABS
P  2.663528  2.663528  3.899927
P  4.499136  1.425474  1.263191
P  1.425474  4.499135  1.263191
In  0.000584  0.000584  0.059316
In  3.042277  0.198514  2.977202
In  0.198514  3.042277  2.977202
In  2.949714  2.949714 -0.090913
P  1.440707  1.440706 10.306852
P  4.497606  1.414999  7.535398
P  1.414999  4.497606  7.535398
P  4.461780  4.461780 10.314745
In  0.089237  0.089237  5.737683
In  2.929958 -0.080725  8.899728
In -0.080725  2.929958  8.899728
In  2.904754  2.904754  6.327262
P  1.503015  7.310705  4.430848
P  4.425324  7.322805  1.584839
P  1.499141 10.418135  1.610134
P  4.404065 10.384248  4.432273
In -0.050899  5.969414 -0.144613
In  2.894050  5.743046  2.937293
In  0.006811  8.833197  2.976443
In  2.953903  8.866482  0.144803
P  1.497546  7.490093 10.330884
P  4.441113  7.333934  7.294994
P  1.473521 10.369311  7.300215
P  4.416559 10.229554 10.331910
In -0.006577  5.905786  5.929702
In  2.987113  5.991117  8.901685
In  0.006882  8.915402  8.822756
In  2.951917  8.847572  5.889772
P  7.310705  1.503015  4.430849
P 10.418135  1.499141  1.610134
P  7.322805  4.425324  1.584839
P 10.384248  4.404065  4.432273
In  5.969414 -0.050899 -0.144613
In  8.833197  0.006811  2.976443
In  5.743046  2.894050  2.937293
In  8.866482  2.953903  0.144804
P  7.490093  1.497546 10.330884
P 10.369312  1.473521  7.300215
P  7.333934  4.441112  7.294994
P 10.229555  4.416559 10.331910
In  5.905786 -0.006578  5.929703
In  8.915403  0.006882  8.822756
In  5.991117  2.987113  8.901685
In  8.847572  2.951917  5.889772
P  7.386383  7.386383  4.429911
P 10.341701  7.376740  1.459741
P  7.376740 10.341701  1.459741
P 10.320079 10.320079  4.432078
In  5.907090  5.907090  0.056361
In  8.882103  5.910694  2.971842
In  5.910694  8.882103  2.971842
In  8.853649  8.853649  0.001584
P  7.366271  7.366271 10.344273
P 10.327922  7.380168  7.410089
P  7.380168 10.327922  7.410089
P 10.342188 10.342188 10.348478
In  5.789914  5.789913  5.692753
In  8.791029  5.897126  8.819361
In  5.897126  8.791029  8.819360
In  8.850445  8.850445  5.939730
%ENDBLOCK POSITIONS_ABS

KPOINT_MP_GRID: 4 4 4
KPOINT_MP_OFFSET: 0.125 0.125 0.125
