# written by ASE

%BLOCK LATTICE_CART
11.801682 -0.000008 -0.000008
-0.000008 11.801682 -0.000008
-0.000008 -0.000008 11.801682
%ENDBLOCK LATTICE_CART

%BLOCK POSITIONS_ABS
P  2.667673  2.667673  3.900078
P  4.497805  1.426809  1.263921
P  1.426809  4.497805  1.263921
In  0.001872  0.001872  0.059891
In  3.042412  0.196945  2.976260
In  0.196945  3.042412  2.976260
In  2.950484  2.950484 -0.093114
P  1.441254  1.441254 10.306435
P  4.498080  1.414394  7.536300
P  1.414394  4.498080  7.536300
P  4.461807  4.461806 10.312843
In  0.088642  0.088641  5.735738
In  2.930204 -0.081935  8.900502
In -0.081935  2.930204  8.900502
In  2.903652  2.903652  6.329825
P  1.503407  7.312112  4.431161
P  4.426156  7.324287  1.584440
P  1.498601 10.416548  1.609473
P  4.403665 10.383512  4.432414
In -0.050153  5.968311 -0.143718
In  2.893775  5.745851  2.935913
In  0.005233  8.832513  2.976370
In  2.953709  8.866126  0.143432
P  1.496765  7.490176 10.330811
P  4.442439  7.334162  7.295226
P  1.472220 10.369556  7.300659
P  4.417151 10.228937 10.332043
In -0.004508  5.903712  5.927934
In  2.986659  5.992438  8.901080
In  0.005587  8.915200  8.823134
In  2.952012  8.847772  5.892684
P  7.312112  1.503407  4.431161
P 10.416548  1.498601  1.609473
P  7.324287  4.426156  1.584440
P 10.383512  4.403665  4.432414
In  5.968311 -0.050153 -0.143718
In  8.832513  0.005233  2.976370
In  5.745851  2.893775  2.935913
In  8.866126  2.953709  0.143432
P  7.490176  1.496764 10.330811
P 10.369556  1.472220  7.300659
P  7.334162  4.442439  7.295226
P 10.228937  4.417150 10.332043
In  5.903712 -0.004508  5.927934
In  8.915200  0.005587  8.823134
In  5.992438  2.986659  8.901080
In  8.847772  2.952012  5.892684
P  7.386677  7.386677  4.430818
P 10.341785  7.376534  1.459233
P  7.376534 10.341785  1.459233
P 10.319165 10.319165  4.432619
In  5.905593  5.905593  0.056977
In  8.882643  5.912490  2.972285
In  5.912490  8.882643  2.972285
In  8.853544  8.853544  0.001351
P  7.365882  7.365882 10.345420
P 10.329055  7.378659  7.409548
P  7.378659 10.329055  7.409548
P 10.342420 10.342420 10.349782
In  5.787416  5.787416  5.688816
In  8.791091  5.898212  8.819831
In  5.898212  8.791091  8.819831
In  8.850128  8.850128  5.941677
%ENDBLOCK POSITIONS_ABS

KPOINT_MP_GRID: 4 4 4
KPOINT_MP_OFFSET: 0.125 0.125 0.125
