#######################################################
#CASTEP cell file: /home/eng/phrbqc/GitHub/InPDislocs/Devel/Data_Devel/EOS/CASTEP_Files/WZ_EOS_0.8804/WZ_EOS_0.8804.cell
#Created using the Atomic Simulation Environment (ASE)#
#######################################################

%BLOCK LATTICE_CART
 3.666650 -0.000038  0.000000
 1.833292  3.175431 -0.000000
 0.000000 -0.000000  6.021432
%ENDBLOCK LATTICE_CART

%BLOCK POSITIONS_ABS
P  1.833294  1.058457 -0.000078
P  3.666645  2.116942  3.010638
In  1.833305  1.058463  2.254683
In  3.666634  2.116936  5.265399
%ENDBLOCK POSITIONS_ABS

KPOINT_MP_GRID: 11 11 7
KPOINT_MP_OFFSET: 0.045455 0.045455 0.071429
