#######################################################
#CASTEP cell file: /home/eng/phrbqc/GitHub/InPDislocs/Devel/Data_Devel/EOS/CASTEP_Files/WZ_EOS_0.7365/WZ_EOS_0.7365.cell
#Created using the Atomic Simulation Environment (ASE)#
#######################################################

%BLOCK LATTICE_CART
 3.067293 -0.000032  0.000000
 1.533619  2.656370 -0.000000
 0.000000 -0.000000  5.037159
%ENDBLOCK LATTICE_CART

%BLOCK POSITIONS_ABS
P  1.533621  0.885440 -0.000065
P  3.067289  1.770903  2.518514
In  1.533630  0.885445  1.886129
In  3.067280  1.770898  4.404708
%ENDBLOCK POSITIONS_ABS

KPOINT_MP_GRID: 13 13 7
KPOINT_MP_OFFSET: 0.038462 0.038462 0.071429
