#######################################################
#CASTEP cell file: /home/eng/phrbqc/GitHub/InPDislocs/Devel/Data_Devel/EOS/CASTEP_Files/ZB_EOS_0.891/ZB_EOS_0.891.cell
#Created using the Atomic Simulation Environment (ASE)#
#######################################################

%BLOCK LATTICE_CART
 5.258096  0.000000 -0.000000
 0.000000  5.258096 -0.000000
-0.000000 -0.000000  5.258096
%ENDBLOCK LATTICE_CART

%BLOCK POSITIONS_ABS
P  1.314524  1.314524  3.943572
P  3.943572  1.314524  1.314524
P  1.314524  3.943572  1.314524
P  3.943572  3.943572  3.943572
In  0.000000  0.000000  0.000000
In  2.629048  0.000000  2.629048
In  0.000000  2.629048  2.629048
In  2.629048  2.629048  0.000000
%ENDBLOCK POSITIONS_ABS

KPOINT_MP_GRID: 7 7 7
KPOINT_MP_OFFSET: 0.071429 0.071429 0.071429
