#######################################################
#CASTEP cell file: /home/eng/phrbqc/GitHub/InPDislocs/Devel/Data_Devel/EOS/CASTEP_Files/WZ_EOS_0.7845/WZ_EOS_0.7845.cell
#Created using the Atomic Simulation Environment (ASE)#
#######################################################

%BLOCK LATTICE_CART
 3.267079 -0.000034  0.000000
 1.633510  2.829390 -0.000000
 0.000000 -0.000000  5.365250
%ENDBLOCK LATTICE_CART

%BLOCK POSITIONS_ABS
P  1.633512  0.943112 -0.000070
P  3.267074  1.886249  2.682555
In  1.633522  0.943118  2.008980
In  3.267065  1.886244  4.691605
%ENDBLOCK POSITIONS_ABS

KPOINT_MP_GRID: 13 13 7
KPOINT_MP_OFFSET: 0.038462 0.038462 0.071429
