#######################################################
#CASTEP cell file: /home/eng/phrbqc/GitHub/InPDislocs/Devel/Data_Devel/EOS/CASTEP_Files/WZ_EOS_0.8858/WZ_EOS_0.8858.cell
#Created using the Atomic Simulation Environment (ASE)#
#######################################################

%BLOCK LATTICE_CART
 3.688849 -0.000038  0.000000
 1.844391  3.194655 -0.000000
 0.000000 -0.000000  6.057887
%ENDBLOCK LATTICE_CART

%BLOCK POSITIONS_ABS
P  1.844393  1.064865 -0.000079
P  3.688843  2.129758  3.028865
In  1.844404  1.064871  2.268333
In  3.688832  2.129752  5.297277
%ENDBLOCK POSITIONS_ABS

KPOINT_MP_GRID: 11 11 7
KPOINT_MP_OFFSET: 0.045455 0.045455 0.071429
