#######################################################
#CASTEP cell file: /home/eng/phrbqc/GitHub/InPDislocs/Devel/Data_Devel/EOS/CASTEP_Files/WZ_EOS_1.2056/WZ_EOS_1.2056.cell
#Created using the Atomic Simulation Environment (ASE)#
#######################################################

%BLOCK LATTICE_CART
 5.020752 -0.000052  0.000000
 2.510331  4.348125 -0.000000
 0.000000 -0.000000  8.245161
%ENDBLOCK LATTICE_CART

%BLOCK POSITIONS_ABS
P  2.510334  1.449347 -0.000107
P  5.020745  2.898733  4.122473
In  2.510349  1.449356  3.087343
In  5.020730  2.898725  7.209923
%ENDBLOCK POSITIONS_ABS

KPOINT_MP_GRID: 9 9 5
KPOINT_MP_OFFSET: 0.055556 0.055556 0.1
