#######################################################
#CASTEP cell file: /home/eng/phrbqc/GitHub/InPDislocs/Devel/Data_Devel/EOS/CASTEP_Files/ZB_EOS_1.1575/ZB_EOS_1.1575.cell
#Created using the Atomic Simulation Environment (ASE)#
#######################################################

%BLOCK LATTICE_CART
 6.830715  0.000000 -0.000000
 0.000000  6.830715 -0.000000
-0.000000 -0.000000  6.830715
%ENDBLOCK LATTICE_CART

%BLOCK POSITIONS_ABS
P  1.707679  1.707679  5.123036
P  5.123036  1.707679  1.707679
P  1.707679  5.123036  1.707679
P  5.123036  5.123036  5.123036
In  0.000000  0.000000  0.000000
In  3.415358  0.000000  3.415358
In  0.000000  3.415358  3.415358
In  3.415358  3.415358  0.000000
%ENDBLOCK POSITIONS_ABS

KPOINT_MP_GRID: 5 5 5
KPOINT_MP_OFFSET: 0.1 0.1 0.1
