# written by ASE

%BLOCK LATTICE_CART
11.801682 -0.000008 -0.000008
-0.000008 11.801682 -0.000008
-0.000008 -0.000008 11.801682
%ENDBLOCK LATTICE_CART

%BLOCK POSITIONS_ABS
P  1.397843  1.380281  4.399464
P  3.954986  0.623448  0.621124
P  1.397843  4.401788  1.377957
P  4.462461  4.426098  4.423774
P  1.397848  1.381277 10.159141
P  4.412593  1.380775  7.279296
P  1.463844  4.327501  7.267347
P  4.411106  4.322365 10.238544
P  1.463844  7.269671  4.325177
P  4.412593  7.281620  1.378451
P  1.397848 10.161465  1.378953
P  4.411106 10.240868  4.320041
P  1.463843  7.293569 10.233413
P  4.359457  7.281613  7.279289
P  1.463843 10.235737  7.291245
P  4.462460 10.137125 10.134801
P  7.422342  1.353820  4.364067
P 10.353871  1.380775  1.378451
P  7.422342  4.366391  1.351496
P 10.315068  4.338833  4.336509
P  7.422345  1.407725 10.194515
P 10.277829  1.380771  7.279292
P  7.363636  4.340325  7.291510
P 10.325446  4.341219 10.219681
P  7.363636  7.293834  4.338001
P 10.277829  7.281616  1.378448
P  7.422345 10.196839  1.405401
P 10.325446 10.222005  4.338895
P  7.363636  7.269392 10.220577
P 10.312559  7.281612  7.279288
P  7.363636 10.222901  7.267068
P 10.315065 10.224393 10.222069
In  0.003838 -0.108945 -0.111268
In  2.787326 -0.179989  2.939238
In  0.003827  2.870514  2.868190
In  2.787326  2.941562 -0.182313
In -0.047924 -0.103866  5.853759
In  2.962411 -0.109642  8.772928
In -0.047926  2.865421  8.704846
In  2.962407  2.871198  5.785675
In -0.047924  5.856083 -0.106189
In  2.962407  5.787999  2.868874
In -0.047926  8.707170  2.863097
In  2.962411  8.775252 -0.111966
In -0.006623  5.811794  5.809470
In  2.918740  5.792492  8.768423
In -0.006626  8.751446  8.749122
In  2.918740  8.770747  5.790168
In  6.090118 -0.253702 -0.256026
In  8.889564 -0.089990  2.849221
In  6.090095  3.015250  3.012926
In  8.889564  2.851545 -0.092313
In  5.880656 -0.093846  5.809288
In  8.848446 -0.115330  8.740179
In  5.880651  2.855395  8.749306
In  8.848442  2.876873  5.818408
In  5.880656  5.811611 -0.096170
In  8.848442  5.820732  2.874549
In  5.880651  8.751630  2.853072
In  8.848446  8.742503 -0.117654
In  5.902127  5.875770  5.873446
In  8.844343  5.802110  8.758792
In  5.902127  8.687454  8.685130
In  8.844343  8.761116  5.799786
P  3.954977  2.138077  2.135753
%ENDBLOCK POSITIONS_ABS

KPOINT_MP_GRID: 4 4 4
KPOINT_MP_OFFSET: 0.125 0.125 0.125
