# written by ASE

%BLOCK LATTICE_CART
11.801682 -0.000008 -0.000008
-0.000008 11.801682 -0.000008
-0.000008 -0.000008 11.801682
%ENDBLOCK LATTICE_CART

%BLOCK POSITIONS_ABS
P  1.352615  1.458451  4.529416
P  3.979723  2.075350  2.353137
P  1.457566  4.406028  1.429370
P  4.466529  4.488843  4.490616
P  1.369719  1.440884 10.172488
P  4.415595  1.455994  7.341273
P  1.463491  4.416302  7.340875
P  4.422663  4.403719 10.293390
P  1.467435  7.327685  4.374706
P  4.412349  7.358684  1.445637
P  1.431263 10.279206  1.472320
P  4.420934 10.274349  4.434054
P  1.466715  7.375956 10.329328
P  4.368276  7.343507  7.366037
P  1.443402 10.281430  7.349258
P  4.445587 10.232385 10.196258
P  7.450245  1.422372  4.449978
P 10.353378  1.455363  1.445036
P  7.419063  4.439237  1.425959
P 10.326259  4.409970  4.397526
P  7.421536  1.498396 10.260975
P 10.256905  1.452526  7.366578
P  7.373003  4.426037  7.352854
P 10.328406  4.426424 10.296320
P  7.364072  7.370416  4.402866
P 10.294787  7.349126  1.446200
P  7.391433 10.297842  1.461120
P 10.315515 10.283570  4.395614
P  7.363519  7.352612 10.297144
P 10.313249  7.356623  7.348991
P  7.365517 10.299422  7.346182
P 10.317526 10.298216 10.312614
In  0.017055 -0.022283 -0.039123
In  2.768714 -0.120852  3.134419
In  0.014713  2.929365  2.934052
In  2.809475  2.960195 -0.185681
In -0.094652 -0.051133  5.946409
In  2.943436 -0.046535  8.801421
In -0.067051  2.958069  8.758590
In  2.958452  2.949381  5.862449
In -0.012826  5.898491 -0.010626
In  2.974248  5.843168  2.924963
In -0.030647  8.791192  2.917997
In  2.968430  8.873822 -0.029239
In -0.006861  5.889049  5.872892
In  2.910237  5.877409  8.852241
In -0.015456  8.816932  8.838175
In  2.910800  8.801450  5.876035
In  6.058339 -0.143311 -0.205465
In  8.885558 -0.019629  2.909864
In  6.112958  3.075562  3.100804
In  8.891894  2.932643 -0.022945
In  5.889709 -0.017916  5.876751
In  8.842942 -0.047261  8.832577
In  5.889646  2.939054  8.802386
In  8.862116  2.958266  5.892190
In  5.882222  5.889919 -0.025462
In  8.855948  5.898159  2.946005
In  5.881289  8.827785  2.916401
In  8.843514  8.821313 -0.029454
In  5.900316  5.950648  5.934291
In  8.843851  5.885556  8.833675
In  5.898126  8.772578  8.765698
In  8.838583  8.834867  5.873800
P  3.933912  0.784129  0.666631
%ENDBLOCK POSITIONS_ABS

KPOINT_MP_GRID: 4 4 4
KPOINT_MP_OFFSET: 0.125 0.125 0.125
