# written by ASE

%BLOCK LATTICE_CART
11.801682 -0.000008 -0.000008
-0.000008 11.801682 -0.000008
-0.000008 -0.000008 11.801682
%ENDBLOCK LATTICE_CART

%BLOCK POSITIONS_ABS
P  1.352385  1.457359  4.528177
P  3.978990  2.075008  2.359670
P  1.456362  4.406645  1.428149
P  4.466411  4.490262  4.491514
P  1.370027  1.441893 10.172951
P  4.415994  1.456158  7.340819
P  1.464041  4.415795  7.340345
P  4.422760  4.403337 10.293782
P  1.468448  7.327586  4.374759
P  4.412413  7.358414  1.445588
P  1.429657 10.278929  1.472719
P  4.421406 10.273973  4.433657
P  1.467114  7.375632 10.329000
P  4.368823  7.343417  7.366324
P  1.443707 10.281716  7.349168
P  4.444356 10.231283 10.195112
P  7.451211  1.423475  4.450336
P 10.353949  1.455250  1.444570
P  7.417697  4.439160  1.426563
P 10.326523  4.409664  4.397145
P  7.421025  1.496945 10.260626
P 10.257782  1.452647  7.366692
P  7.373217  4.425983  7.353268
P 10.326900  4.426031 10.296546
P  7.365077  7.369943  4.402925
P 10.294524  7.349288  1.446381
P  7.390108 10.298436  1.460368
P 10.314647 10.283378  4.395572
P  7.364429  7.353172 10.297041
P 10.314137  7.356608  7.348830
P  7.365374 10.299916  7.345497
P 10.317130 10.297998 10.312388
In  0.016792 -0.022819 -0.040560
In  2.770201 -0.121766  3.132754
In  0.015390  2.929787  2.933667
In  2.811120  2.960160 -0.182973
In -0.094601 -0.051399  5.946145
In  2.943131 -0.045280  8.801437
In -0.066751  2.958632  8.758833
In  2.958576  2.948085  5.860953
In -0.013945  5.899197 -0.011749
In  2.973758  5.842003  2.923839
In -0.030783  8.790533  2.918940
In  2.967483  8.873931 -0.028154
In -0.006222  5.888743  5.872488
In  2.910746  5.876730  8.851842
In -0.014881  8.817198  8.838233
In  2.911617  8.801805  5.876457
In  6.055285 -0.143945 -0.206537
In  8.885098 -0.019406  2.909223
In  6.111840  3.076124  3.102359
In  8.889947  2.931793 -0.022301
In  5.889942 -0.017004  5.875349
In  8.843202 -0.047308  8.831765
In  5.889906  2.938705  8.802847
In  8.862753  2.958625  5.892920
In  5.882665  5.891101 -0.026372
In  8.856003  5.897408  2.945596
In  5.882166  8.826429  2.916672
In  8.843327  8.821996 -0.028659
In  5.901119  5.950944  5.934732
In  8.844367  5.885952  8.833140
In  5.898929  8.772650  8.765290
In  8.838851  8.834650  5.874370
P  3.933614  0.787457  0.667808
%ENDBLOCK POSITIONS_ABS

KPOINT_MP_GRID: 4 4 4
KPOINT_MP_OFFSET: 0.125 0.125 0.125
