#######################################################
#CASTEP cell file: /home/eng/phrbqc/GitHub/InPDislocs/Devel/Data_Devel/EOS/CASTEP_Files/ZB_EOS_1.0829/ZB_EOS_1.0829.cell
#Created using the Atomic Simulation Environment (ASE)#
#######################################################

%BLOCK LATTICE_CART
 6.390382  0.000000 -0.000000
 0.000000  6.390382 -0.000000
-0.000000 -0.000000  6.390382
%ENDBLOCK LATTICE_CART

%BLOCK POSITIONS_ABS
P  1.597595  1.597595  4.792786
P  4.792786  1.597595  1.597595
P  1.597595  4.792786  1.597595
P  4.792786  4.792786  4.792786
In  0.000000  0.000000  0.000000
In  3.195191  0.000000  3.195191
In  0.000000  3.195191  3.195191
In  3.195191  3.195191  0.000000
%ENDBLOCK POSITIONS_ABS

KPOINT_MP_GRID: 7 7 7
KPOINT_MP_OFFSET: 0.071429 0.071429 0.071429
