# written by ASE

%BLOCK LATTICE_CART
11.801682 -0.000008 -0.000008
-0.000008 11.801682 -0.000008
-0.000008 -0.000008 11.801682
%ENDBLOCK LATTICE_CART

%BLOCK POSITIONS_ABS
P  1.610659  1.610659  4.607417
P  4.432096  1.504699  1.570757
P  1.504699  4.432096  1.570757
P  5.040190  5.040190  4.303377
In  0.020484  0.020484 -0.020504
In  2.886372  0.057059  3.064084
In  0.057059  2.886372  3.064084
In  2.983404  2.983404  0.057811
P  1.518325  1.518325 10.331730
P  4.514721  1.620148  7.331514
P  1.620148  4.514721  7.331514
P  4.421449  4.421449 10.322377
In  0.002391  0.002390  5.817822
In  2.955859  0.118321  8.747982
In  0.118321  2.955859  8.747982
In  3.711151  3.711151  6.057343
P  1.510765  7.427850  4.401282
P  4.430652  7.457147  1.344380
P  1.490971 10.372090  1.482608
P  4.412248 10.322274  4.449035
In -0.029982  5.873170  0.087782
In  3.041313  6.008614  2.914794
In -0.004986  8.870473  2.928642
In  2.965827  8.968236 -0.079829
P  1.389541  7.439679 10.412674
P  4.443934  7.243444  7.326316
P  1.453024 10.353777  7.375850
P  4.442386 10.416387 10.230048
In  0.049459  5.911992  5.855557
In  2.909841  6.021169  8.953564
In -0.049970  8.857274  8.827230
In  2.990072  8.830038  5.986832
P  7.427850  1.510765  4.401282
P 10.372090  1.490971  1.482608
P  7.457147  4.430652  1.344380
P 10.322274  4.412248  4.449035
In  5.873170 -0.029982  0.087782
In  8.870473 -0.004986  2.928642
In  6.008614  3.041313  2.914794
In  8.968236  2.965827 -0.079829
P  7.439679  1.389541 10.412675
P 10.353777  1.453024  7.375850
P  7.243444  4.443934  7.326316
P 10.416387  4.442386 10.230049
In  5.911993  0.049459  5.855558
In  8.857274 -0.049970  8.827230
In  6.021169  2.909841  8.953564
In  8.830038  2.990072  5.986832
P  6.928978  6.928978  4.528620
P 10.259044  7.352464  1.541639
P  7.352464 10.259044  1.541639
P 10.250756 10.250756  4.435283
In  5.918836  5.918836 -0.070286
In  8.751666  5.862957  3.024629
In  5.862957  8.751666  3.024629
In  8.820237  8.820237  0.001398
P  7.385990  7.385990 10.249757
P 10.309514  7.346250  7.327812
P  7.346250 10.309514  7.327812
P 10.317482 10.317482 10.350410
In  8.804358  5.843720  8.755421
In  5.843720  8.804357  8.755421
In  8.650737  8.650736  5.852050
%ENDBLOCK POSITIONS_ABS

KPOINT_MP_GRID: 4 4 4
KPOINT_MP_OFFSET: 0.125 0.125 0.125
