# written by ASE

%BLOCK LATTICE_CART
11.801682 -0.000008 -0.000008
-0.000008 11.801682 -0.000008
-0.000008 -0.000008 11.801682
%ENDBLOCK LATTICE_CART

%BLOCK POSITIONS_ABS
P  1.608192  1.608192  4.608103
P  4.430906  1.501280  1.566477
P  1.501280  4.430906  1.566477
P  5.036533  5.036533  4.292688
In  0.020448  0.020448 -0.021530
In  2.886755  0.056928  3.065075
In  0.056928  2.886755  3.065075
In  2.982908  2.982908  0.055207
P  1.517553  1.517553 10.330008
P  4.516237  1.621486  7.335355
P  1.621486  4.516237  7.335355
P  4.422719  4.422719 10.323595
In  0.000261  0.000261  5.817895
In  2.955684  0.116249  8.746892
In  0.116249  2.955684  8.746892
In  3.713687  3.713687  6.060895
P  1.508826  7.426991  4.400565
P  4.431724  7.459286  1.347226
P  1.492297 10.373464  1.482010
P  4.414476 10.322517  4.448790
In -0.033063  5.872704  0.085656
In  3.036503  6.009541  2.909962
In -0.002245  8.869660  2.925277
In  2.968641  8.969432 -0.078024
P  1.389710  7.441187 10.416995
P  4.442580  7.241191  7.324953
P  1.452819 10.351905  7.374445
P  4.443396 10.414295 10.226986
In  0.050350  5.911159  5.858458
In  2.909658  6.024009  8.957713
In -0.047512  8.856502  8.828645
In  2.991219  8.829397  5.983906
P  7.426991  1.508826  4.400565
P 10.373464  1.492297  1.482010
P  7.459286  4.431724  1.347226
P 10.322517  4.414476  4.448790
In  5.872704 -0.033063  0.085656
In  8.869660 -0.002245  2.925277
In  6.009541  3.036503  2.909962
In  8.969432  2.968641 -0.078024
P  7.441187  1.389710 10.416995
P 10.351905  1.452819  7.374445
P  7.241192  4.442580  7.324953
P 10.414295  4.443396 10.226986
In  5.911159  0.050350  5.858458
In  8.856503 -0.047513  8.828645
In  6.024009  2.909658  8.957713
In  8.829397  2.991219  5.983906
P  6.923827  6.923827  4.541556
P 10.257841  7.352533  1.541497
P  7.352533 10.257841  1.541497
P 10.252650 10.252650  4.429389
In  5.918302  5.918302 -0.065262
In  8.747491  5.868204  3.030607
In  5.868204  8.747491  3.030607
In  8.819963  8.819963 -0.000904
P  7.384111  7.384111 10.250150
P 10.311286  7.347470  7.329418
P  7.347470 10.311286  7.329418
P 10.317786 10.317786 10.349245
In  8.801331  5.844188  8.751994
In  5.844188  8.801331  8.751994
In  8.661594  8.661594  5.853024
%ENDBLOCK POSITIONS_ABS

KPOINT_MP_GRID: 4 4 4
KPOINT_MP_OFFSET: 0.125 0.125 0.125
