#######################################################
#CASTEP cell file: /home/eng/phrbqc/GitHub/InPDislocs/Devel/Data_Devel/EOS/CASTEP_Files/ZB_EOS_1.1522/ZB_EOS_1.1522.cell
#Created using the Atomic Simulation Environment (ASE)#
#######################################################

%BLOCK LATTICE_CART
 6.799263  0.000000 -0.000000
 0.000000  6.799263 -0.000000
-0.000000 -0.000000  6.799263
%ENDBLOCK LATTICE_CART

%BLOCK POSITIONS_ABS
P  1.699816  1.699816  5.099447
P  5.099447  1.699816  1.699816
P  1.699816  5.099447  1.699816
P  5.099447  5.099447  5.099447
In  0.000000  0.000000  0.000000
In  3.399631  0.000000  3.399631
In  0.000000  3.399631  3.399631
In  3.399631  3.399631  0.000000
%ENDBLOCK POSITIONS_ABS

KPOINT_MP_GRID: 5 5 5
KPOINT_MP_OFFSET: 0.1 0.1 0.1
