# written by ASE

%BLOCK LATTICE_CART
11.802550  0.000000  0.000000
 0.000000 11.802550  0.000000
 0.000000  0.000000 11.802550
%ENDBLOCK LATTICE_CART

%BLOCK POSITIONS_ABS
P  1.508937  1.441700  4.473192
P  4.574873  1.557062  1.567332
P  1.508937  4.462921  1.451971
P  4.429488  4.463081  4.473352
P  1.393576  1.557062 10.188585
P  4.451212  1.458665  7.358578
P  1.485665  4.431446  7.359337
P  4.571097  4.519628 10.192362
P  1.485665  7.349067  4.441717
P  4.451212  7.348308  1.468935
P  1.393576 10.178314  1.567332
P  4.571097 10.182091  4.529899
P  1.491973  7.348308 10.312246
P  4.460739  7.392157  7.402428
P  1.491973 10.301975  7.358578
P  4.349959 10.403229 10.413500
P  7.404121  1.464973  4.441717
P 10.290266  1.441700  1.451971
P  7.404121  4.431446  1.475243
P 10.410792  4.342395  4.352666
P  7.404880  1.458665 10.312246
P 10.321741  1.464973  7.359337
P  7.426559  4.410380  7.336899
P 10.290107  4.463081 10.333970
P  7.426559  7.326628  4.420651
P 10.321741  7.349067  1.475243
P  7.404880 10.301975  1.468935
P 10.290107 10.323699  4.473352
P  7.361031  7.392157 10.302719
P 10.342807  7.326628  7.336899
P  7.361031 10.292448  7.402428
P 10.233560 10.182091 10.192362
In -0.282335 -0.126613 -0.116342
In  3.077250 -0.126613  3.243243
In  0.096221  2.854417  2.864687
In  3.077250  3.232972 -0.116342
In  0.002387 -0.017677  5.916840
In  2.921365  0.029273  8.817004
In -0.094320  3.044957  8.779231
In  2.968314  2.948250  5.916840
In  0.002387  5.906569 -0.007406
In  2.968314  5.906569  2.958521
In -0.094320  8.768960  3.055228
In  2.921365  8.806733  0.039544
In  0.001404  5.847441  5.857711
In  2.959536  5.920821  8.800229
In  0.035607  8.781841  8.792112
In  2.959536  8.789958  5.931092
In  5.946454  0.029273  0.039544
In  8.846618 -0.017677  2.958521
In  5.984228  3.044957  3.055228
In  8.846618  2.948250 -0.007406
In  5.963229 -0.008899  5.931092
In  8.832366 -0.008899  8.800229
In  5.971347  2.915030  8.792112
In  8.905747  2.949233  5.857711
In  5.963229  5.920821  0.001372
In  8.905747  5.847441  2.959504
In  5.971347  8.781841  2.925301
In  8.832366  8.789958  0.001372
In  5.929206  5.917720  5.927991
In  8.835468  5.917720  8.834253
In  5.847400  8.905787  8.916058
In  8.835468  8.823982  5.927991
In  2.353766  0.596872  0.607142
%ENDBLOCK POSITIONS_ABS

KPOINT_MP_GRID: 4 4 4
KPOINT_MP_OFFSET: 0.125 0.125 0.125
