# written by ASE

%BLOCK LATTICE_CART
11.802550  0.000000  0.000000
 0.000000 11.802550  0.000000
 0.000000  0.000000 11.802550
%ENDBLOCK LATTICE_CART

%BLOCK POSITIONS_ABS
P  1.509163  1.441475  4.469486
P  4.566788  1.555151  1.565422
P  1.509163  4.459215  1.451745
P  4.429622  4.462051  4.472322
P  1.395486  1.555151 10.196671
P  4.449457  1.457949  7.358997
P  1.486266  4.431185  7.359688
P  4.573946  4.522255 10.189512
P  1.486266  7.349418  4.441456
P  4.449457  7.348726  1.468219
P  1.395486 10.186400  1.565422
P  4.573946 10.179241  4.532525
P  1.492689  7.348726 10.314001
P  4.461651  7.391629  7.401899
P  1.492689 10.303731  7.358997
P  4.353041 10.400147 10.410417
P  7.403770  1.464371  4.441456
P 10.293972  1.441475  1.451745
P  7.403770  4.431185  1.474642
P 10.407588  4.345599  4.355870
P  7.404461  1.457949 10.314001
P 10.322003  1.464371  7.359688
P  7.425830  4.410505  7.337628
P 10.291137  4.462051 10.333836
P  7.425830  7.327358  4.420776
P 10.322003  7.349418  1.474642
P  7.404461 10.303731  1.468219
P 10.291137 10.323565  4.472322
P  7.361559  7.391629 10.301807
P 10.342682  7.327358  7.337628
P  7.361559 10.291536  7.401899
P 10.230933 10.179241 10.189512
In -0.288297 -0.130180 -0.119909
In  3.080817 -0.130180  3.249205
In  0.090683  2.859955  2.870225
In  3.080817  3.238934 -0.119909
In  0.003072 -0.016488  5.914912
In  2.920754  0.029884  8.819544
In -0.092235  3.042872  8.779920
In  2.967125  2.947566  5.914912
In  0.003072  5.904642 -0.006217
In  2.967125  5.904642  2.957837
In -0.092235  8.769650  3.053143
In  2.920754  8.809273  0.040155
In  0.001877  5.849093  5.859364
In  2.959870  5.922155  8.799672
In  0.037250  8.781295  8.791566
In  2.959870  8.789401  5.932426
In  5.943915  0.029884  0.040155
In  8.848546 -0.016488  2.957837
In  5.983538  3.042872  3.053143
In  8.848546  2.947566 -0.006217
In  5.963786 -0.009232  5.932426
In  8.831032 -0.009232  8.799672
In  5.971892  2.913387  8.791566
In  8.904095  2.948760  5.859364
In  5.963786  5.922155  0.001039
In  8.904095  5.849093  2.959031
In  5.971892  8.781295  2.923658
In  8.831032  8.789401  0.001039
In  5.928945  5.916794  5.927065
In  8.836394  5.916794  8.834513
In  5.848601  8.904587  8.914858
In  8.836394  8.824242  5.927065
In  2.350231  0.600407  0.610678
%ENDBLOCK POSITIONS_ABS

KPOINT_MP_GRID: 4 4 4
KPOINT_MP_OFFSET: 0.125 0.125 0.125
