# written by ASE

%BLOCK LATTICE_CART
14.454049 20.441112  0.000000
14.454049 -20.441112  0.000000
-0.000000  0.000000  4.172525
%ENDBLOCK LATTICE_CART

%BLOCK POSITIONS_ABS
In  9.163095 -3.149469  0.169909
P  8.420542 -0.693926  0.604201
In  5.762119 -3.156301  1.835339
P  6.313818 -0.666934  1.443999
In  9.557828  0.360573  2.588275
P  8.962523  2.853474  2.235547
In 13.245849  0.414275  0.236887
P 12.616937  2.930929  0.132462
In  7.656317  3.653010  0.110411
P  7.442771  6.253107  0.070311
In 11.357593  3.783640  2.208186
P 11.074779  6.344086  2.150273
In  9.819639  7.187806  0.061671
P  9.642996  9.775652  0.044018
In  6.231530  7.167109  2.146332
P 20.512936 -10.687959  2.134534
In  8.435938 10.676187  2.130728
P 22.707140 -7.179697  2.127587
In 12.022073 10.684284  0.019271
P 11.862844 13.265992  0.003629
In 21.455255 -6.331864  0.044744
P 21.246546 -3.763109  0.048661
In 10.645337 14.159962  2.092968
P 24.981463 -3.669438  2.084634
In 16.315771 -2.962927  0.107116
P 15.742277 -0.439385  0.134797
In 12.719256 -2.970187  2.211583
P 12.070245 -0.470903  2.342119
In 16.882784  0.450782  2.212605
P 16.213256  2.957038  2.177938
In 20.469124  0.484519  0.067390
P 19.767593  2.986414  0.039415
In 14.991490  3.836651  0.091529
P 14.690458  6.383817  0.039666
In 18.567557  3.873924  2.126393
P 18.303248  6.413690  2.089371
In 17.065733  7.250187  0.003297
P 16.845772  9.789055 -0.017374
In 13.452667  7.242291  2.125007
P 13.243409  9.804957  2.104509
In 15.634004 10.655452  2.069359
P 15.485519 13.206486  2.041121
In 19.220661 10.651674 -0.045199
P 19.054102 13.171638 -0.078530
In 14.282311 14.071379 -0.044863
P 14.225105 16.636826 -0.082135
In 17.879929 14.048186  2.006679
P  3.346550 -3.852204  1.967889
In 23.651675 -2.910601  0.006571
P 22.980983 -0.348900  0.058028
In 19.949373 -2.942592  2.141573
P 19.367242 -0.417620  2.157081
In 23.714335  0.865839  2.147551
P 23.251311  3.315489  2.074801
In 26.586967  0.567815 -0.205632
P 12.344267 -17.337929 -0.077856
In 22.019691  4.081546 -0.009988
P 21.882195  6.585191 -0.030785
In 25.677638  4.039151  2.015194
P 11.071109 -13.899210  2.014125
In  9.850059 -13.111714 -0.071026
P  9.668312 -10.601402 -0.069814
In 20.644850  7.357542  2.056864
P 20.460270  9.869008  2.040547
In  8.432126 -9.832243  2.013240
P  8.248871 -7.322167  1.978628
In 12.069658 -9.785011 -0.015282
P 11.847959 -7.259381  0.035063
In  7.020922 -6.559109 -0.120145
P  6.864101 -4.062596 -0.227225
In 10.619585 -6.455873  2.124476
P 10.392297 -3.934311  2.244547
In 16.648255 17.477587 -0.116863
P  2.549388 -0.433940 -0.238846
In 13.018733 17.500608  2.006294
P 27.738225 -0.388525  1.885268
In  1.319929  0.411585  1.865779
P 15.955651 -17.474694  1.974094
In  5.030816  0.342376 -0.503183
P  5.186546  2.888102 -0.149417
In 14.789226 -16.581765 -0.103532
P 14.654443 -14.033110 -0.060385
In  3.948255  3.773333  1.946538
P 18.268518 -14.099931  2.038591
In 17.064550 -13.214924 -0.045366
P 16.897765 -10.652357  0.005118
In 13.486600 -13.132000  2.029372
P 13.297321 -10.603744  2.069353
In 15.692902 -9.770382  2.093078
P 15.451306 -7.225030  2.136598
In 19.296200 -9.807466  0.046295
P 19.076159 -7.238857  0.061375
In 14.218586 -6.380272  0.053988
P 13.945181 -3.836377  0.116464
In 17.840285 -6.376908  2.150566
P 17.569581 -3.824536  2.184610
%ENDBLOCK POSITIONS_ABS

KPOINT_MP_GRID: 2 2 8
KPOINT_MP_OFFSET: 0.25 0.25 0.0625
