# written by ASE

%BLOCK LATTICE_CART
14.454049 20.441112  0.000000
14.454049 -20.441112  0.000000
-0.000000  0.000000  4.172525
%ENDBLOCK LATTICE_CART

%BLOCK POSITIONS_ABS
In  9.167811 -3.153555  0.161417
P  8.425073 -0.697718  0.581443
In  5.768071 -3.147574  1.841747
P  6.318665 -0.659715  1.445158
In  9.547112  0.358196  2.572670
P  8.956329  2.852701  2.225436
In 13.236465  0.413861  0.245773
P 12.609316  2.931784  0.134432
In  7.650535  3.653653  0.101123
P  7.440472  6.254222  0.068315
In 11.351419  3.785637  2.209798
P 11.072230  6.346434  2.152895
In  9.817341  7.189664  0.064132
P  9.642138  9.777289  0.046154
In  6.229016  7.168253  2.144583
P 20.512063 -10.686267  2.134201
In  8.434780 10.678060  2.132809
P 22.708241 -7.178087  2.131055
In 12.023470 10.680357  0.021334
P 11.868686 13.259933  0.007233
In 21.457928 -6.324984  0.048419
P 21.264454 -3.754733  0.052669
In 10.650883 14.147619  2.097159
P 25.000843 -3.684751  2.093943
In 16.321594 -2.959546  0.108864
P 15.739137 -0.436036  0.144800
In 12.721162 -2.971578  2.209931
P 12.064639 -0.473650  2.350401
In 16.882244  0.455023  2.223000
P 16.207732  2.961594  2.182656
In 20.480435  0.497521  0.090980
P 19.756500  2.999815  0.047056
In 14.985149  3.837857  0.095774
P 14.687624  6.385399  0.042234
In 18.558331  3.888839  2.133111
P 18.298913  6.426833  2.092436
In 17.060378  7.258599  0.006155
P 16.843897  9.796404 -0.016816
In 13.451060  7.242166  2.127333
P 13.244559  9.804149  2.106504
In 15.632924 10.661832  2.069839
P 15.487555 13.212125  2.039211
In 19.221853 10.651635 -0.046246
P 19.056496 13.171905 -0.079886
In 14.284814 14.075258 -0.047055
P 14.232018 16.639648 -0.085857
In 17.883791 14.049759  2.005178
P  3.352233 -3.849684  1.967872
In 23.678672 -2.921036  0.017744
P 23.008907 -0.361306  0.107141
In 19.965778 -2.932336  2.146228
P 19.375214 -0.408396  2.179200
In 23.738288  0.858656  2.201311
P 23.247342  3.307360  2.079410
In 26.523719  0.549729 -0.265109
P 12.337412 -17.353453 -0.088422
In 22.017117  4.079159 -0.006462
P 21.882861  6.584039 -0.029753
In 25.677545  4.032959  2.004858
P 11.070075 -13.904747  2.006915
In  9.851197 -13.115064 -0.077690
P  9.670215 -10.604245 -0.072726
In 20.646156  7.357248  2.057935
P 20.461265  9.868551  2.039521
In  8.433482 -9.834398  2.010685
P  8.250176 -7.324000  1.977139
In 12.072102 -9.788660 -0.017754
P 11.850934 -7.262798  0.032582
In  7.023221 -6.558847 -0.121585
P  6.865182 -4.062254 -0.222206
In 10.621625 -6.460958  2.121780
P 10.396411 -3.939488  2.236357
In 16.654519 17.479932 -0.116966
P  2.536472 -0.430895 -0.251501
In 13.029546 17.506667  2.002339
P 27.714499 -0.385222  1.837114
In  1.298546  0.410254  1.851592
P 15.950952 -17.477802  1.969495
In  5.024030  0.339020 -0.502157
P  5.181039  2.886266 -0.149857
In 14.778477 -16.591972 -0.108202
P 14.651465 -14.040602 -0.064227
In  3.943653  3.771040  1.945653
P 18.266648 -14.101572  2.037064
In 17.061281 -13.218282 -0.046820
P 16.898439 -10.653954  0.004217
In 13.485114 -13.137790  2.025448
P 13.299255 -10.608261  2.066930
In 15.694107 -9.771174  2.092165
P 15.454587 -7.224568  2.136172
In 19.295962 -9.804159  0.045889
P 19.078891 -7.234178  0.062125
In 14.220869 -6.380690  0.053432
P 13.950338 -3.836151  0.115010
In 17.842759 -6.370750  2.151123
P 17.582183 -3.816574  2.186075
%ENDBLOCK POSITIONS_ABS

KPOINT_MP_GRID: 2 2 8
KPOINT_MP_OFFSET: 0.25 0.25 0.0625
