#######################################################
#CASTEP cell file: /home/eng/phrbqc/GitHub/InPDislocs/Devel/Data_Devel/EOS/CASTEP_Files/ZB_EOS_0.7311/ZB_EOS_0.7311.cell
#Created using the Atomic Simulation Environment (ASE)#
#######################################################

%BLOCK LATTICE_CART
 4.314524  0.000000 -0.000000
 0.000000  4.314524 -0.000000
-0.000000 -0.000000  4.314524
%ENDBLOCK LATTICE_CART

%BLOCK POSITIONS_ABS
P  1.078631  1.078631  3.235893
P  3.235893  1.078631  1.078631
P  1.078631  3.235893  1.078631
P  3.235893  3.235893  3.235893
In  0.000000  0.000000  0.000000
In  2.157262  0.000000  2.157262
In  0.000000  2.157262  2.157262
In  2.157262  2.157262  0.000000
%ENDBLOCK POSITIONS_ABS

KPOINT_MP_GRID: 9 9 9
KPOINT_MP_OFFSET: 0.055556 0.055556 0.055556
