#######################################################
#CASTEP cell file: /home/eng/phrbqc/GitHub/InPDislocs/Devel/Data_Devel/EOS/CASTEP_Files/WZ_EOS_1.1896/WZ_EOS_1.1896.cell
#Created using the Atomic Simulation Environment (ASE)#
#######################################################

%BLOCK LATTICE_CART
 4.954157 -0.000052  0.000000
 2.477034  4.290451 -0.000000
 0.000000 -0.000000  8.135797
%ENDBLOCK LATTICE_CART

%BLOCK POSITIONS_ABS
P  2.477037  1.430123 -0.000106
P  4.954150  2.860285  4.067793
In  2.477052  1.430132  3.046392
In  4.954135  2.860276  7.114291
%ENDBLOCK POSITIONS_ABS

KPOINT_MP_GRID: 9 9 5
KPOINT_MP_OFFSET: 0.055556 0.055556 0.1
