# written by ASE

%BLOCK LATTICE_CART
11.801682 -0.000008 -0.000008
-0.000008 11.801682 -0.000008
-0.000008 -0.000008 11.801682
%ENDBLOCK LATTICE_CART

%BLOCK POSITIONS_ABS
P  1.491284  1.491284  4.424195
P  4.424195  1.491283  1.491283
P  1.491284  4.424195  1.491284
P  5.827592  5.827592  5.827592
In -0.009168 -0.009168 -0.009168
In  2.939569  0.001206  2.939569
In  0.001206  2.939569  2.939569
In  2.939569  2.939569  0.001206
P  1.468839  1.468839 10.315387
P  4.415369  1.497628  7.323113
P  1.497628  4.415369  7.323113
P  4.416430  4.416430 10.311605
In -0.005269 -0.005269  5.897103
In  2.950923  0.000434  8.831990
In  0.000435  2.950922  8.831990
In  3.065189  3.065189  5.745403
P  1.497628  7.323113  4.415369
P  4.415369  7.323113  1.497628
P  1.468839 10.315387  1.468839
P  4.416430 10.311605  4.416430
In -0.005269  5.897104 -0.005269
In  3.065189  5.745403  3.065189
In  0.000435  8.831991  2.950922
In  2.950923  8.831991  0.000434
P  1.502897  7.354831 10.292627
P  4.634600  7.207630  7.207630
P  1.502897 10.292627  7.354831
P  4.431896 10.287938 10.287938
In -0.017750  5.892866  5.892866
In  2.995860  5.884810  8.775632
In  0.009950  8.845593  8.845593
In  2.995860  8.775632  5.884810
P  7.323113  1.497628  4.415369
P 10.315387  1.468839  1.468839
P  7.323113  4.415369  1.497628
P 10.311605  4.416430  4.416430
In  5.897103 -0.005269 -0.005269
In  8.831991  0.000434  2.950923
In  5.745403  3.065188  3.065188
In  8.831991  2.950923  0.000434
P  7.354831  1.502896 10.292627
P 10.292627  1.502896  7.354831
P  7.207630  4.634600  7.207630
P 10.287938  4.431896 10.287938
In  5.892866 -0.017750  5.892866
In  8.845593  0.009949  8.845593
In  5.884810  2.995860  8.775632
In  8.775632  2.995860  5.884810
P  7.207630  7.207630  4.634600
P 10.292627  7.354831  1.502896
P  7.354831 10.292627  1.502896
P 10.287938 10.287938  4.431895
In  5.892866  5.892866 -0.017750
In  8.775632  5.884810  2.995860
In  5.884810  8.775632  2.995860
In  8.845593  8.845593  0.009949
P  7.371461  7.371460 10.322438
P 10.322438  7.371461  7.371461
P  7.371461 10.322438  7.371460
P 10.317830 10.317830 10.317830
In  8.801757  5.922714  8.801756
In  5.922714  8.801756  8.801756
In  8.801757  8.801756  5.922714
%ENDBLOCK POSITIONS_ABS

KPOINT_MP_GRID: 4 4 4
KPOINT_MP_OFFSET: 0.125 0.125 0.125
