# written by ASE

%BLOCK LATTICE_CART
11.801682 -0.000008 -0.000008
-0.000008 11.801682 -0.000008
-0.000008 -0.000008 11.801682
%ENDBLOCK LATTICE_CART

%BLOCK POSITIONS_ABS
P  1.491127  1.491127  4.424601
P  4.424598  1.491121  1.491121
P  1.491127  4.424601  1.491127
P  5.826747  5.826757  5.826757
In -0.009287 -0.009287 -0.009287
In  2.939925  0.001906  2.939927
In  0.001907  2.939927  2.939927
In  2.939925  2.939927  0.001906
P  1.469014  1.469013 10.315750
P  4.415677  1.496847  7.324809
P  1.496845  4.415677  7.324808
P  4.416295  4.416294 10.312741
In -0.006221 -0.006222  5.896837
In  2.950493 -0.000333  8.832328
In -0.000334  2.950491  8.832328
In  3.061699  3.061700  5.750554
P  1.496845  7.324808  4.415676
P  4.415677  7.324809  1.496847
P  1.469014 10.315750  1.469013
P  4.416294 10.312741  4.416294
In -0.006221  5.896837 -0.006222
In  3.061699  5.750554  3.061700
In -0.000334  8.832328  2.950491
In  2.950493  8.832328 -0.000333
P  1.502617  7.354678 10.292135
P  4.633620  7.208366  7.208365
P  1.502617 10.292135  7.354678
P  4.432264 10.286573 10.286573
In -0.016021  5.892235  5.892235
In  2.996889  5.884661  8.776087
In  0.009925  8.845343  8.845343
In  2.996889  8.776087  5.884661
P  7.324810  1.496845  4.415678
P 10.315752  1.469014  1.469014
P  7.324810  4.415678  1.496845
P 10.312740  4.416295  4.416295
In  5.896837 -0.006225 -0.006225
In  8.832329 -0.000333  2.950492
In  5.750559  3.061687  3.061687
In  8.832329  2.950493 -0.000333
P  7.354679  1.502616 10.292135
P 10.292135  1.502616  7.354677
P  7.208361  4.633626  7.208365
P 10.286577  4.432264 10.286576
In  5.892234 -0.016020  5.892235
In  8.845343  0.009924  8.845343
In  5.884663  2.996890  8.776087
In  8.776085  2.996892  5.884664
P  7.208361  7.208365  4.633625
P 10.292135  7.354677  1.502616
P  7.354679 10.292135  1.502616
P 10.286577 10.286576  4.432264
In  5.892234  5.892235 -0.016020
In  8.776085  5.884664  2.996892
In  5.884663  8.776087  2.996890
In  8.845343  8.845343  0.009924
P  7.370906  7.370904 10.324049
P 10.324049  7.370906  7.370906
P  7.370906 10.324050  7.370904
P 10.317579 10.317579 10.317578
In  8.801307  5.925629  8.801307
In  5.925631  8.801306  8.801306
In  8.801307  8.801307  5.925629
%ENDBLOCK POSITIONS_ABS

KPOINT_MP_GRID: 4 4 4
KPOINT_MP_OFFSET: 0.125 0.125 0.125
