# written by ASE

%BLOCK LATTICE_CART
11.801682 -0.000008 -0.000008
-0.000008 11.801682 -0.000008
-0.000008 -0.000008 11.801682
%ENDBLOCK LATTICE_CART

%BLOCK POSITIONS_ABS
P  1.424247  1.361250  4.369864
P  4.481882  1.281806  1.280882
P  1.424247  4.370788  1.360326
P  3.941890  5.017502  5.016578
P  1.467984  1.419538 10.280127
P  4.411303  1.420022  7.306740
P  1.378429  4.375002  7.400235
P  4.413088  4.359457 10.260233
P  1.378429  7.401159  4.374078
P  4.411303  7.307664  1.419098
P  1.467984 10.281050  1.418614
P  4.413088 10.261157  4.358533
P  1.456060  7.314647 10.259697
P  4.441443  7.374585  7.373661
P  1.456060 10.260621  7.313723
P  4.363237 10.240971 10.240047
P  7.439121  1.362534  4.383784
P 10.331331  1.410089  1.409165
P  7.439121  4.384708  1.361611
P 10.353883  4.361899  4.360975
P  7.375012  1.397458 10.241387
P 10.326214  1.398196  7.316497
P  7.406617  4.333641  7.331616
P 10.279455  4.363455 10.258841
P  7.406617  7.332540  4.332717
P 10.326214  7.317421  1.397272
P  7.375012 10.242311  1.396534
P 10.279455 10.259765  4.362531
P  7.352537  7.314367 10.268072
P 10.299718  7.325045  7.324121
P  7.352537 10.268996  7.313443
P 10.310975 10.263559 10.262635
In -0.003727 -0.069117 -0.070041
In  2.976161 -0.035684  2.869492
In  0.022967  2.881632  2.880708
In  2.976161  2.870416 -0.036608
In -0.040100 -0.103035  5.832370
In  2.919274 -0.048846  8.778678
In -0.052685  2.869117  8.840562
In  2.784438  2.823376  5.953795
In -0.040100  5.833294 -0.103959
In  2.784438  5.954719  2.822452
In -0.052685  8.841486  2.868193
In  2.919274  8.779602 -0.049770
In -0.014604  5.859312  5.858388
In  2.949403  5.856260  8.784445
In -0.012380  8.792923  8.791999
In  2.949403  8.785369  5.855336
In  5.921711 -0.164410 -0.165334
In  8.862943 -0.084769  2.856164
In  6.129924  2.689546  2.688622
In  8.862943  2.857088 -0.085693
In  5.877125 -0.065352  5.828482
In  8.844484 -0.069780  8.770620
In  5.885096  2.883539  8.792106
In  8.889054  2.891246  5.831951
In  5.877125  5.829406 -0.066276
In  8.889054  5.832875  2.890322
In  5.885096  8.793030  2.882615
In  8.844484  8.771544 -0.070704
In  6.044550  5.955755  5.954831
In  8.835750  5.850260  8.796093
In  5.888064  8.823546  8.822622
In  8.835750  8.797017  5.849337
P  3.962891  3.505725  3.504801
%ENDBLOCK POSITIONS_ABS

KPOINT_MP_GRID: 4 4 4
KPOINT_MP_OFFSET: 0.125 0.125 0.125
