# written by ASE

%BLOCK LATTICE_CART
11.801682 -0.000008 -0.000008
-0.000008 11.801682 -0.000008
-0.000008 -0.000008 11.801682
%ENDBLOCK LATTICE_CART

%BLOCK POSITIONS_ABS
P  1.425986  1.364603  4.372329
P  4.481997  1.283725  1.282854
P  1.425986  4.373199  1.363733
P  3.941810  5.018199  5.017328
P  1.467528  1.422841 10.283116
P  4.411844  1.421903  7.310527
P  1.378757  4.378655  7.404064
P  4.413372  4.362528 10.263120
P  1.378757  7.404935  4.377785
P  4.411844  7.311398  1.421033
P  1.467528 10.283986  1.421970
P  4.413372 10.263991  4.361658
P  1.455513  7.317529 10.263119
P  4.441188  7.375082  7.374211
P  1.455513 10.263990  7.316658
P  4.362690 10.243104 10.242233
P  7.439282  1.365580  4.387038
P 10.332036  1.412970  1.412099
P  7.439282  4.387908  1.364710
P 10.353471  4.364659  4.363789
P  7.374970  1.400114 10.243971
P 10.326956  1.401193  7.319013
P  7.406389  4.335576  7.333863
P 10.278812  4.366384 10.261648
P  7.406389  7.334734  4.334705
P 10.326956  7.319884  1.400323
P  7.374970 10.244842  1.399243
P 10.278812 10.262519  4.365514
P  7.352410  7.317442 10.270219
P 10.300312  7.327424  7.326554
P  7.352410 10.271090  7.316571
P 10.310731 10.266343 10.265472
In -0.003824 -0.066535 -0.067406
In  2.976957 -0.033403  2.871791
In  0.023160  2.885091  2.884220
In  2.976957  2.872662 -0.034273
In -0.039978 -0.099614  5.834127
In  2.918560 -0.045819  8.782122
In -0.053031  2.872393  8.843393
In  2.782569  2.825028  5.960795
In -0.039978  5.834998 -0.100485
In  2.782569  5.961665  2.824157
In -0.053031  8.844264  2.871523
In  2.918560  8.782993 -0.046690
In -0.013695  5.861096  5.860225
In  2.949664  5.860024  8.788510
In -0.012563  8.795741  8.794870
In  2.949664  8.789381  5.859153
In  5.921924 -0.162787 -0.163657
In  8.863043 -0.081774  2.858757
In  6.130283  2.691486  2.690616
In  8.863043  2.859627 -0.082644
In  5.877693 -0.062736  5.831661
In  8.844553 -0.066826  8.772926
In  5.884776  2.886486  8.794807
In  8.889646  2.893828  5.834935
In  5.877693  5.832532 -0.063606
In  8.889646  5.835806  2.892957
In  5.884776  8.795678  2.885615
In  8.844553  8.773796 -0.067697
In  6.045211  5.956946  5.956075
In  8.835356  5.853064  8.798126
In  5.886580  8.824883  8.824012
In  8.835356  8.798997  5.852193
P  3.961854  3.507681  3.506810
%ENDBLOCK POSITIONS_ABS

KPOINT_MP_GRID: 4 4 4
KPOINT_MP_OFFSET: 0.125 0.125 0.125
