#######################################################
#CASTEP cell file: /home/eng/phrbqc/GitHub/InPDislocs/Devel/Data_Devel/EOS/CASTEP_Files/WZ_EOS_0.8911/WZ_EOS_0.8911.cell
#Created using the Atomic Simulation Environment (ASE)#
#######################################################

%BLOCK LATTICE_CART
 3.711047 -0.000039  0.000000
 1.855490  3.213880 -0.000000
 0.000000 -0.000000  6.094341
%ENDBLOCK LATTICE_CART

%BLOCK POSITIONS_ABS
P  1.855492  1.071273 -0.000079
P  3.711042  2.142574  3.047091
In  1.855503  1.071279  2.281983
In  3.711031  2.142568  5.329154
%ENDBLOCK POSITIONS_ABS

KPOINT_MP_GRID: 11 11 7
KPOINT_MP_OFFSET: 0.045455 0.045455 0.071429
