# written by ASE

%BLOCK LATTICE_CART
11.801682 -0.000008 -0.000008
-0.000008 11.801682 -0.000008
-0.000008 -0.000008 11.801682
%ENDBLOCK LATTICE_CART

%BLOCK POSITIONS_ABS
P  1.470749  1.470749  4.395202
P  4.395203  1.470749  1.470749
P  1.470749  4.395203  1.470749
P  5.920056  5.920056  5.920056
In -0.005573 -0.005573 -0.005573
In  2.927571 -0.027071  2.927571
In -0.027071  2.927571  2.927571
In  2.927571  2.927571 -0.027071
P  1.460285  1.460285 10.286537
P  4.403427  1.564817  7.273715
P  1.564817  4.403427  7.273715
P  4.431651  4.431651 10.328650
In -0.010214 -0.010214  5.902131
In  2.972673  0.028497  8.794952
In  0.028497  2.972673  8.794951
In  3.105230  3.105230  5.574655
P  1.564817  7.273715  4.403427
P  4.403427  7.273716  1.564817
P  1.460285 10.286537  1.460285
P  4.431651 10.328650  4.431651
In -0.010214  5.902131 -0.010214
In  3.105230  5.574655  3.105230
In  0.028497  8.794952  2.972672
In  2.972673  8.794952  0.028497
P  1.526902  7.339948 10.294695
P  4.697960  7.276273  7.276272
P  1.526902 10.294695  7.339947
P  4.419105 10.296597 10.296597
In  0.020749  5.905039  5.905038
In  3.029745  5.881862  8.762231
In  0.061391  8.873731  8.873731
In  3.029745  8.762232  5.881862
P  7.273715  1.564817  4.403427
P 10.286537  1.460285  1.460285
P  7.273715  4.403427  1.564817
P 10.328650  4.431651  4.431651
In  5.902131 -0.010214 -0.010214
In  8.794952  0.028497  2.972673
In  5.574655  3.105230  3.105230
In  8.794952  2.972673  0.028497
P  7.339948  1.526902 10.294695
P 10.294695  1.526902  7.339948
P  7.276273  4.697960  7.276272
P 10.296597  4.419105 10.296597
In  5.905039  0.020748  5.905039
In  8.873731  0.061391  8.873731
In  5.881862  3.029745  8.762231
In  8.762232  3.029745  5.881862
P  7.276273  7.276273  4.697960
P 10.294695  7.339948  1.526902
P  7.339948 10.294695  1.526902
P 10.296597 10.296597  4.419105
In  5.905039  5.905039  0.020749
In  8.762232  5.881862  3.029745
In  5.881862  8.762232  3.029745
In  8.873731  8.873731  0.061391
P  7.400767  7.400767 10.382469
P 10.382469  7.400767  7.400767
P  7.400767 10.382469  7.400767
P 10.325685 10.325685 10.325685
In  8.863457  5.989889  8.863456
In  5.989889  8.863456  8.863456
In  8.863457  8.863456  5.989889
%ENDBLOCK POSITIONS_ABS

KPOINT_MP_GRID: 4 4 4
KPOINT_MP_OFFSET: 0.125 0.125 0.125
