#######################################################
#CASTEP cell file: /home/eng/phrbqc/GitHub/InPDislocs/Devel/Data_Devel/EOS/CASTEP_Files/WZ_EOS_0.9284/WZ_EOS_0.9284.cell
#Created using the Atomic Simulation Environment (ASE)#
#######################################################

%BLOCK LATTICE_CART
 3.866436 -0.000040  0.000000
 1.933183  3.348451 -0.000000
 0.000000 -0.000000  6.349523
%ENDBLOCK LATTICE_CART

%BLOCK POSITIONS_ABS
P  1.933185  1.116129 -0.000083
P  3.866430  2.232288  3.174679
In  1.933197  1.116136  2.377534
In  3.866419  2.232281  5.552296
%ENDBLOCK POSITIONS_ABS

KPOINT_MP_GRID: 11 11 7
KPOINT_MP_OFFSET: 0.045455 0.045455 0.071429
