#######################################################
#CASTEP cell file: /home/eng/phrbqc/GitHub/InPDislocs/Devel/Data_Devel/EOS/CASTEP_Files/WZ_EOS_1.0563/WZ_EOS_1.0563.cell
#Created using the Atomic Simulation Environment (ASE)#
#######################################################

%BLOCK LATTICE_CART
 4.399197 -0.000046  0.000000
 2.199559  3.809839 -0.000000
 0.000000 -0.000000  7.224433
%ENDBLOCK LATTICE_CART

%BLOCK POSITIONS_ABS
P  2.199561  1.269922 -0.000094
P  4.399191  2.539878  3.612122
In  2.199575  1.269930  2.705138
In  4.399178  2.539871  6.317355
%ENDBLOCK POSITIONS_ABS

KPOINT_MP_GRID: 9 9 5
KPOINT_MP_OFFSET: 0.055556 0.055556 0.1
