#######################################################
#CASTEP cell file: /home/eng/phrbqc/GitHub/InPDislocs/Devel/Data_Devel/EOS/CASTEP_Files/WZ_EOS_1.115/WZ_EOS_1.115.cell
#Created using the Atomic Simulation Environment (ASE)#
#######################################################

%BLOCK LATTICE_CART
 4.643380 -0.000048  0.000000
 2.321648  4.021308 -0.000000
 0.000000 -0.000000  7.625433
%ENDBLOCK LATTICE_CART

%BLOCK POSITIONS_ABS
P  2.321650  1.340411 -0.000099
P  4.643373  2.680857  3.812617
In  2.321664  1.340418  2.855290
In  4.643359  2.680849  6.668006
%ENDBLOCK POSITIONS_ABS

KPOINT_MP_GRID: 9 9 5
KPOINT_MP_OFFSET: 0.055556 0.055556 0.1
