# written by ASE

%BLOCK LATTICE_CART
11.801682 -0.000008 -0.000008
-0.000008 11.801682 -0.000008
-0.000008 -0.000008 11.801682
%ENDBLOCK LATTICE_CART

%BLOCK POSITIONS_ABS
P  1.501016  1.501016  4.614705
P  4.390290  1.467091  1.577481
P  1.467091  4.390290  1.577481
P  5.116243  5.116243  3.933532
In -0.002695 -0.002695 -0.024849
In  2.858207  0.008890  3.070430
In  0.008890  2.858207  3.070430
In  2.936069  2.936069  0.064377
P  1.484798  1.484798 10.319138
P  4.347182  1.663250  7.240140
P  1.663250  4.347182  7.240140
P  4.381571  4.381571 10.342335
In -0.059268 -0.059268  5.888920
In  2.948926  0.132384  8.711850
In  0.132384  2.948925  8.711850
In  5.365397  5.365397  6.348481
P  1.450490  7.351596  4.429523
P  4.391192  7.461004  1.327867
P  1.469633 10.335261  1.470856
P  4.397826 10.294547  4.450710
In -0.053305  5.825600  0.086091
In  2.954184  6.011730  2.880593
In -0.009500  8.839304  2.934198
In  2.926070  8.934030 -0.115176
P  1.343193  7.381550 10.405525
P  4.291825  7.333291  7.505854
P  1.446286 10.313298  7.391575
P  4.400816 10.413936 10.229963
In  0.037555  5.808682  5.939939
In  2.768240  5.863537  8.960115
In -0.066123  8.835714  8.831136
In  2.921367  8.814042  5.923176
P  7.351596  1.450490  4.429523
P 10.335261  1.469633  1.470856
P  7.461004  4.391192  1.327867
P 10.294547  4.397826  4.450710
In  5.825600 -0.053305  0.086091
In  8.839304 -0.009500  2.934198
In  6.011730  2.954184  2.880593
In  8.934030  2.926070 -0.115176
P  7.381550  1.343192 10.405525
P 10.313299  1.446285  7.391575
P  7.333291  4.291825  7.505854
P 10.413937  4.400816 10.229963
In  5.808682  0.037555  5.939939
In  8.835714 -0.066124  8.831137
In  5.863537  2.768240  8.960115
In  8.814042  2.921367  5.923176
P  7.074619  7.074619  4.470670
P 10.272547  7.341600  1.517138
P  7.341600 10.272547  1.517138
P 10.258009 10.258009  4.409762
In  5.879163  5.879163 -0.037125
In  8.776912  5.859888  2.977852
In  5.859889  8.776912  2.977852
In  8.812135  8.812135  0.016995
P  7.361484  7.361483 10.295556
P 10.290953  7.349078  7.315965
P  7.349078 10.290953  7.315965
P 10.293724 10.293723 10.347306
In  8.855094  5.881707  8.830405
In  5.881707  8.855094  8.830405
In  8.685891  8.685891  5.769603
%ENDBLOCK POSITIONS_ABS

KPOINT_MP_GRID: 4 4 4
KPOINT_MP_OFFSET: 0.125 0.125 0.125
