# written by ASE

%BLOCK LATTICE_CART
11.801682 -0.000008 -0.000008
-0.000008 11.801682 -0.000008
-0.000008 -0.000008 11.801682
%ENDBLOCK LATTICE_CART

%BLOCK POSITIONS_ABS
P  1.500037  1.500037  4.615275
P  4.389417  1.463190  1.575176
P  1.463190  4.389417  1.575176
P  5.118622  5.118622  3.914133
In -0.001379 -0.001379 -0.026439
In  2.857036  0.008135  3.071570
In  0.008135  2.857036  3.071570
In  2.935798  2.935798  0.064221
P  1.485314  1.485314 10.316458
P  4.353957  1.662907  7.246387
P  1.662907  4.353957  7.246387
P  4.382458  4.382458 10.344999
In -0.060378 -0.060378  5.889804
In  2.948514  0.130455  8.710061
In  0.130455  2.948514  8.710061
In  5.341911  5.341911  6.336610
P  1.446375  7.351225  4.429380
P  4.392593  7.466035  1.330925
P  1.470739 10.337325  1.470191
P  4.396992 10.295768  4.452273
In -0.055146  5.825084  0.082572
In  2.948425  6.016279  2.875114
In -0.008022  8.839527  2.930866
In  2.930240  8.938629 -0.113730
P  1.344721  7.385901 10.410944
P  4.291736  7.325610  7.500225
P  1.446551 10.311820  7.389835
P  4.403493 10.411340 10.224199
In  0.034112  5.809275  5.943501
In  2.769804  5.869036  8.967334
In -0.063723  8.836505  8.833389
In  2.921849  8.810697  5.921768
P  7.351225  1.446375  4.429380
P 10.337325  1.470739  1.470191
P  7.466035  4.392593  1.330925
P 10.295768  4.396992  4.452273
In  5.825084 -0.055146  0.082572
In  8.839527 -0.008022  2.930866
In  6.016279  2.948424  2.875115
In  8.938629  2.930240 -0.113730
P  7.385901  1.344721 10.410944
P 10.311820  1.446551  7.389835
P  7.325610  4.291736  7.500225
P 10.411340  4.403492 10.224199
In  5.809275  0.034112  5.943501
In  8.836506 -0.063723  8.833389
In  5.869036  2.769804  8.967334
In  8.810697  2.921849  5.921768
P  7.080378  7.080378  4.481046
P 10.273007  7.340901  1.516828
P  7.340901 10.273007  1.516828
P 10.261072 10.261072  4.405168
In  5.877193  5.877193 -0.028221
In  8.776228  5.864483  2.985412
In  5.864483  8.776228  2.985412
In  8.811177  8.811177  0.017065
P  7.358240  7.358240 10.298419
P 10.291196  7.351499  7.319200
P  7.351499 10.291196  7.319200
P 10.294110 10.294110 10.347977
In  8.846604  5.882059  8.825545
In  5.882059  8.846604  8.825545
In  8.694086  8.694086  5.771374
%ENDBLOCK POSITIONS_ABS

KPOINT_MP_GRID: 4 4 4
KPOINT_MP_OFFSET: 0.125 0.125 0.125
