#######################################################
#CASTEP cell file: /home/eng/phrbqc/GitHub/InPDislocs/Devel/Data_Devel/EOS/CASTEP_Files/ZB_EOS_1.1042/ZB_EOS_1.1042.cell
#Created using the Atomic Simulation Environment (ASE)#
#######################################################

%BLOCK LATTICE_CART
 6.516191  0.000000 -0.000000
 0.000000  6.516191 -0.000000
-0.000000 -0.000000  6.516191
%ENDBLOCK LATTICE_CART

%BLOCK POSITIONS_ABS
P  1.629048  1.629048  4.887143
P  4.887143  1.629048  1.629048
P  1.629048  4.887143  1.629048
P  4.887143  4.887143  4.887143
In  0.000000  0.000000  0.000000
In  3.258096  0.000000  3.258096
In  0.000000  3.258096  3.258096
In  3.258096  3.258096  0.000000
%ENDBLOCK POSITIONS_ABS

KPOINT_MP_GRID: 7 7 7
KPOINT_MP_OFFSET: 0.071429 0.071429 0.071429
