#######################################################
#CASTEP cell file: /home/eng/phrbqc/GitHub/InPDislocs/Devel/Data_Devel/EOS/CASTEP_Files/WZ_EOS_0.9444/WZ_EOS_0.9444.cell
#Created using the Atomic Simulation Environment (ASE)#
#######################################################

%BLOCK LATTICE_CART
 3.933031 -0.000041  0.000000
 1.966480  3.406125 -0.000000
 0.000000 -0.000000  6.458887
%ENDBLOCK LATTICE_CART

%BLOCK POSITIONS_ABS
P  1.966482  1.135353 -0.000084
P  3.933025  2.270737  3.229359
In  1.966494  1.135360  2.418485
In  3.933014  2.270730  5.647928
%ENDBLOCK POSITIONS_ABS

KPOINT_MP_GRID: 11 11 7
KPOINT_MP_OFFSET: 0.045455 0.045455 0.071429
