# written by ASE

%BLOCK LATTICE_CART
11.801682 -0.000008 -0.000008
-0.000008 11.801682 -0.000008
-0.000008 -0.000008 11.801682
%ENDBLOCK LATTICE_CART

%BLOCK POSITIONS_ABS
P  1.398280  1.452013  4.473519
P  3.955414  2.209808  2.209808
P  1.398280  4.473519  1.452013
P  4.462898  4.497829  4.497829
P  1.398285  1.453009 10.233196
P  4.413030  1.452506  7.353351
P  1.464280  4.399233  7.341402
P  4.411542  4.394096 10.312599
P  1.464280  7.341402  4.399233
P  4.413030  7.353351  1.452506
P  1.398285 10.233196  1.453009
P  4.411542 10.312599  4.394096
P  1.464279  7.365301 10.307468
P  4.359893  7.353345  7.353345
P  1.464279 10.307468  7.365301
P  4.462897 10.208856 10.208856
P  7.422778  1.425552  4.438123
P 10.354308  1.452506  1.452506
P  7.422778  4.438123  1.425552
P 10.315504  4.410565  4.410565
P  7.422781  1.479456 10.268570
P 10.278266  1.452503  7.353347
P  7.364073  4.412056  7.365565
P 10.325882  4.412950 10.293736
P  7.364073  7.365565  4.412056
P 10.278266  7.353347  1.452503
P  7.422781 10.268570  1.479456
P 10.325882 10.293736  4.412950
P  7.364072  7.341123 10.294633
P 10.312995  7.353344  7.353344
P  7.364072 10.294633  7.341123
P 10.315502 10.296124 10.296124
In  0.004274 -0.037213 -0.037213
In  2.787763 -0.108258  3.013293
In  0.004264  2.942246  2.942246
In  2.787763  3.013293 -0.108258
In -0.047488 -0.032134  5.927814
In  2.962848 -0.037910  8.846983
In -0.047490  2.937153  8.778901
In  2.962843  2.942929  5.859730
In -0.047488  5.927814 -0.032134
In  2.962843  5.859730  2.942929
In -0.047490  8.778901  2.937153
In  2.962848  8.846983 -0.037910
In -0.006186  5.883526  5.883526
In  2.919176  5.864223  8.842478
In -0.006189  8.823178  8.823178
In  2.919176  8.842478  5.864223
In  6.090554 -0.181971 -0.181971
In  8.890001 -0.018258  2.923276
In  6.090531  3.086981  3.086981
In  8.890001  2.923276 -0.018258
In  5.881092 -0.022115  5.883343
In  8.848883 -0.043599  8.814234
In  5.881087  2.927127  8.823361
In  8.848878  2.948605  5.892463
In  5.881092  5.883343 -0.022115
In  8.848878  5.892463  2.948605
In  5.881087  8.823361  2.927127
In  8.848883  8.814234 -0.043599
In  5.902564  5.947502  5.947502
In  8.844780  5.873841  8.832847
In  5.902564  8.759186  8.759186
In  8.844780  8.832847  5.873841
P  3.955422  0.695179  0.695179
%ENDBLOCK POSITIONS_ABS

KPOINT_MP_GRID: 4 4 4
KPOINT_MP_OFFSET: 0.125 0.125 0.125
