# written by ASE

%BLOCK LATTICE_CART
11.801682 -0.000008 -0.000008
-0.000008 11.801682 -0.000008
-0.000008 -0.000008 11.801682
%ENDBLOCK LATTICE_CART

%BLOCK POSITIONS_ABS
P  1.399427  1.452544  4.474373
P  3.952597  2.209648  2.209648
P  1.399427  4.474373  1.452544
P  4.464144  4.496098  4.496098
P  1.399410  1.452462 10.232318
P  4.413570  1.452505  7.353349
P  1.463705  4.398958  7.340957
P  4.411804  4.395682 10.311007
P  1.463705  7.340957  4.398958
P  4.413570  7.353349  1.452505
P  1.399410 10.232318  1.452462
P  4.411804 10.311007  4.395682
P  1.463696  7.365731 10.307733
P  4.359043  7.353352  7.353352
P  1.463696 10.307733  7.365731
P  4.464123 10.210612 10.210612
P  7.422905  1.424153  4.437242
P 10.354504  1.452504  1.452504
P  7.422905  4.437242  1.424153
P 10.315981  4.409803  4.409803
P  7.422893  1.480853 10.269459
P 10.276664  1.452500  7.353346
P  7.363939  4.412443  7.365233
P 10.327792  4.413222 10.293463
P  7.363939  7.365233  4.412443
P 10.276664  7.353346  1.452500
P  7.422893 10.269459  1.480853
P 10.327792 10.293463  4.413222
P  7.363929  7.341458 10.294248
P 10.312634  7.353341  7.353341
P  7.363929 10.294248  7.341458
P 10.315964 10.296876 10.296876
In  0.005720 -0.036157 -0.036157
In  2.785473 -0.111671  3.016676
In  0.005726  2.941177  2.941177
In  2.785473  3.016676 -0.111671
In -0.047553 -0.031048  5.928323
In  2.964089 -0.039014  8.846438
In -0.047560  2.936072  8.778380
In  2.964098  2.944025  5.860255
In -0.047553  5.928323 -0.031048
In  2.964098  5.860255  2.944025
In -0.047560  8.778380  2.936072
In  2.964089  8.846438 -0.039014
In -0.007023  5.883334  5.883334
In  2.917542  5.864735  8.841957
In -0.007030  8.823365  8.823365
In  2.917542  8.841957  5.864735
In  6.090993 -0.179320 -0.179320
In  8.892083 -0.019020  2.924033
In  6.091011  3.084358  3.084358
In  8.892083  2.924033 -0.019020
In  5.881267 -0.022475  5.883418
In  8.848103 -0.043740  8.815220
In  5.881265  2.927488  8.823280
In  8.848110  2.948750  5.891478
In  5.881267  5.883418 -0.022475
In  8.848110  5.891478  2.948750
In  5.881265  8.823280  2.927488
In  8.848103  8.815220 -0.043740
In  5.901536  5.947209  5.947209
In  8.844856  5.873492  8.833202
In  5.901522  8.759502  8.759502
In  8.844856  8.833202  5.873492
P  3.952596  0.695424  0.695424
%ENDBLOCK POSITIONS_ABS

KPOINT_MP_GRID: 4 4 4
KPOINT_MP_OFFSET: 0.125 0.125 0.125
