# written by ASE

%BLOCK LATTICE_CART
11.801682 -0.000008 -0.000008
-0.000008 11.801682 -0.000008
-0.000008 -0.000008 11.801682
%ENDBLOCK LATTICE_CART

%BLOCK POSITIONS_ABS
P  3.237598  3.237598  3.899974
P  4.475306  1.401662  1.263234
P  1.401662  4.475306  1.263234
In -0.006281 -0.006281  0.056360
In  3.006696  0.157720  2.937297
In  0.157720  3.006696  2.937297
In  2.951096  2.951096 -0.090885
P  1.439020  1.439020 10.314760
P  4.485792  1.403189  7.535387
P  1.403189  4.485791  7.535387
P  4.460077  4.460077 10.306857
In  0.110880  0.110880  5.692755
In  2.913677 -0.090314  8.901682
In -0.090313  2.913677  8.901682
In  2.996084  2.996084  6.327246
P  1.496709  7.318257  4.432278
P  4.401656  7.284367  1.610115
P  1.475459 10.379657  1.584812
P  4.397775 10.391769  4.430844
In -0.068604  5.951685 -0.144594
In  2.858524  5.702354  2.977185
In -0.009907  8.820384  2.971836
In  2.946895  8.836006  0.144783
P  1.484214  7.472905 10.331919
P  4.427257  7.333159  7.300224
P  1.459672 10.368540  7.294994
P  4.403234 10.212386 10.330872
In -0.004993  5.907384  5.929702
In  2.970826  5.981513  8.899731
In  0.003661  8.911445  8.819365
In  2.948877  8.854906  5.889771
P  7.318257  1.496709  4.432278
P 10.379657  1.475459  1.584812
P  7.284367  4.401656  1.610115
P 10.391769  4.397775  4.430844
In  5.951685 -0.068604 -0.144594
In  8.820384 -0.009907  2.971836
In  5.702354  2.858524  2.977185
In  8.836006  2.946895  0.144783
P  7.472905  1.484214 10.331919
P 10.368541  1.459672  7.294994
P  7.333159  4.427257  7.300224
P 10.212386  4.403233 10.330872
In  5.907384 -0.004994  5.929702
In  8.911445  0.003661  8.819365
In  5.981513  2.970826  8.899731
In  8.854906  2.948877  5.889771
P  7.382380  7.382380  4.432084
P 10.325731  7.360771  1.459739
P  7.360771 10.325730  1.459739
P 10.316084 10.316084  4.429903
In  5.900218  5.900218  0.059305
In  8.869288  5.893982  2.976441
In  5.893982  8.869288  2.976441
In  8.848830  8.848830  0.001580
P  7.360274  7.360274 10.348481
P 10.322296  7.374549  7.410088
P  7.374549 10.322296  7.410088
P 10.336193 10.336193 10.344267
In  5.811553  5.811553  5.737696
In  8.787076  5.893906  8.822754
In  5.893906  8.787076  8.822754
In  8.852024  8.852024  5.939725
%ENDBLOCK POSITIONS_ABS

KPOINT_MP_GRID: 4 4 4
KPOINT_MP_OFFSET: 0.125 0.125 0.125
