# written by ASE

%BLOCK LATTICE_CART
11.801682 -0.000008 -0.000008
-0.000008 11.801682 -0.000008
-0.000008 -0.000008 11.801682
%ENDBLOCK LATTICE_CART

%BLOCK POSITIONS_ABS
P  3.233418  3.233418  3.900114
P  4.473976  1.402996  1.263958
P  1.402996  4.473976  1.263958
In -0.004785 -0.004785  0.056978
In  3.006980  0.154920  2.935915
In  0.154921  3.006980  2.935915
In  2.950326  2.950326 -0.093088
P  1.438993  1.438992 10.312858
P  4.486394  1.402714  7.536288
P  1.402715  4.486394  7.536288
P  4.459530  4.459530 10.306438
In  0.113375  0.113375  5.688825
In  2.914132 -0.091635  8.901080
In -0.091635  2.914132  8.901080
In  2.997179  2.997178  6.329805
P  1.497111  7.318991  4.432420
P  4.402195  7.285952  1.609456
P  1.474628 10.378178  1.584417
P  4.397383 10.390363  4.431156
In -0.067501  5.950942 -0.143702
In  2.858391  5.703917  2.976245
In -0.011701  8.819844  2.972281
In  2.947088  8.836362  0.143414
P  1.483624  7.473523 10.332050
P  4.428559  7.332916  7.300666
P  1.458346 10.368311  7.295229
P  4.404016 10.212302 10.330801
In -0.002919  5.905313  5.927934
In  2.970582  5.982722  8.900503
In  0.002575  8.911383  8.819835
In  2.948781  8.854707  5.892682
P  7.318991  1.497111  4.432420
P 10.378178  1.474628  1.584417
P  7.285952  4.402195  1.609456
P 10.390363  4.397383  4.431156
In  5.950942 -0.067501 -0.143702
In  8.819844 -0.011701  2.972281
In  5.703917  2.858391  2.976246
In  8.836362  2.947088  0.143414
P  7.473524  1.483624 10.332050
P 10.368312  1.458346  7.295229
P  7.332916  4.428559  7.300667
P 10.212302  4.404016 10.330802
In  5.905313 -0.002919  5.927934
In  8.911384  0.002575  8.819836
In  5.982722  2.970582  8.900503
In  8.854707  2.948781  5.892682
P  7.383294  7.383294  4.432623
P 10.325938  7.360689  1.459232
P  7.360689 10.325938  1.459232
P 10.315792 10.315792  4.430811
In  5.898930  5.898930  0.059880
In  8.869972  5.895561  2.976367
In  5.895561  8.869972  2.976367
In  8.848935  8.848935  0.001347
P  7.360042  7.360042 10.349785
P 10.323806  7.373415  7.409547
P  7.373415 10.323806  7.409547
P 10.336583 10.336583 10.345414
In  5.812152  5.812152  5.735751
In  8.787278  5.895201  8.823132
In  5.895201  8.787278  8.823132
In  8.852340  8.852340  5.941671
%ENDBLOCK POSITIONS_ABS

KPOINT_MP_GRID: 4 4 4
KPOINT_MP_OFFSET: 0.125 0.125 0.125
