# written by ASE

%BLOCK LATTICE_CART
11.801682 -0.000008 -0.000008
-0.000008 11.801682 -0.000008
-0.000008 -0.000008 11.801682
%ENDBLOCK LATTICE_CART

%BLOCK POSITIONS_ABS
P  1.511568  1.511568  4.426434
P  4.426435  1.511568  1.511568
P  1.511568  4.426434  1.511568
In -0.001298 -0.001298 -0.001298
In  2.947763  0.002691  2.947762
In  0.002691  2.947763  2.947762
In  2.947763  2.947763  0.002691
P  1.476032  1.476032 10.322530
P  4.424820  1.511561  7.339688
P  1.511561  4.424820  7.339688
P  4.425620  4.425620 10.326465
In  0.016599  0.016599  5.895436
In  2.955820  0.016594  8.834659
In  0.016594  2.955820  8.834659
In  3.068823  3.068823  5.782437
P  1.511561  7.339688  4.424820
P  4.424820  7.339688  1.511561
P  1.476032 10.322530  1.476032
P  4.425620 10.326465  4.425620
In  0.016599  5.895436  0.016599
In  3.068823  5.782437  3.068823
In  0.016594  8.834659  2.955819
In  2.955820  8.834659  0.016594
P  1.476027  7.375214 10.330405
P  4.426426  7.339679  7.339679
P  1.476027 10.330405  7.375214
P  4.425617 10.326461 10.326461
In  0.002686  5.903495  5.903495
In  2.947755  5.903493  8.848562
In -0.001310  8.852555  8.852555
In  2.947755  8.848563  5.903492
P  7.339688  1.511561  4.424820
P 10.322530  1.476032  1.476032
P  7.339688  4.424820  1.511561
P 10.326465  4.425620  4.425620
In  5.895436  0.016599  0.016599
In  8.834659  0.016594  2.955820
In  5.782437  3.068823  3.068823
In  8.834659  2.955820  0.016594
P  7.375214  1.476027 10.330405
P 10.330405  1.476027  7.375214
P  7.339679  4.426426  7.339679
P 10.326461  4.425617 10.326461
In  5.903495  0.002686  5.903495
In  8.852555 -0.001310  8.852555
In  5.903493  2.947754  8.848563
In  8.848563  2.947754  5.903493
P  7.339679  7.339679  4.426426
P 10.330405  7.375214  1.476027
P  7.375214 10.330405  1.476027
P 10.326461 10.326461  4.425617
In  5.903495  5.903495  0.002686
In  8.848563  5.903493  2.947754
In  5.903493  8.848563  2.947754
In  8.852555  8.852555 -0.001310
P  7.375209  7.375209 10.322521
P 10.322521  7.375209  7.375209
P  7.375209 10.322521  7.375209
P 10.326458 10.326458 10.326457
In  5.782415  5.782415  5.782415
In  8.834649  5.895425  8.834648
In  5.895425  8.834648  8.834648
In  8.834649  8.834649  5.895425
%ENDBLOCK POSITIONS_ABS

KPOINT_MP_GRID: 4 4 4
KPOINT_MP_OFFSET: 0.125 0.125 0.125
