# written by ASE

%BLOCK LATTICE_CART
14.454049 20.441112  0.000000
14.454049 -20.441112  0.000000
-0.000000  0.000000  4.172525
%ENDBLOCK LATTICE_CART

%BLOCK POSITIONS_ABS
In  9.123567 -3.227109 -0.146168
P  8.396585 -0.765490 -0.581425
In  5.722502 -3.227401  2.384115
P  6.291426 -0.738673  2.776829
In  9.513282  0.300748  1.598792
P  8.962429  2.803030  1.949235
In 13.172797  0.358258 -0.278227
P 12.599844  2.884584 -0.157906
In  7.671082  3.617787 -0.096767
P  7.452039  6.217525 -0.069882
In 11.348399  3.744979  1.942542
P 11.071330  6.308244  1.999822
In  9.823999  7.162007 -0.082102
P  9.631895  9.750813 -0.062163
In  6.244048  7.134909  2.027618
P 20.506552 -10.722142  2.034012
In  8.427110 10.654377  2.024587
P 22.680935 -7.202551  2.022766
In 12.001918 10.683704 -0.047049
P 11.821196 13.270324 -0.039545
In 21.409529 -6.389400 -0.066975
P 21.160648 -3.827196 -0.070435
In 10.606928 14.191812  2.036143
P 24.926329 -3.630774  2.014949
In 16.247797 -3.024424 -0.133099
P 15.656160 -0.503675 -0.220004
In 12.662711 -3.038085  1.961523
P 12.010495 -0.538550  1.793151
In 16.782421  0.396732  1.869589
P 16.192706  2.914621  1.939143
In 20.374208  0.427030 -0.226453
P 19.763062  2.935934 -0.119084
In 14.971550  3.793879 -0.142404
P 14.676770  6.343036 -0.078428
In 18.561125  3.806988  1.972992
P 18.295935  6.343152  2.046310
In 17.062390  7.185708 -0.037279
P 16.828396  9.726659  0.011980
In 13.444953  7.217404  2.010623
P 13.218888  9.783775  2.040878
In 15.618055 10.608050  2.099528
P 15.449844 13.162335  2.166280
In 19.220656 10.543045  0.054056
P 19.026844 13.071428  0.115550
In 14.248037 14.048382  0.082736
P 14.177214 16.617830  0.150248
In 17.855289 13.971371  2.205736
P  3.308410 -3.924583  2.261995
In 23.541951 -2.876679 -0.105207
P 22.816515 -0.412928 -0.469447
In 19.872830 -2.988805  2.006612
P 19.251086 -0.475315  1.863081
In 23.921610  0.599726  1.603706
P 23.309103  3.063651  2.013935
In 26.581660  0.547925  0.610543
P 12.416526 -17.375887  0.125295
In 22.107180  3.872242 -0.064498
P 21.903397  6.398270  0.002379
In 11.229512 -16.499387  2.190509
P 11.065542 -13.988359  2.209428
In  9.837532 -13.210316  0.118748
P  9.645666 -10.697674  0.101239
In 20.671734  7.205398  2.087942
P 20.456195  9.729084  2.139665
In  8.409479 -9.923838  2.189508
P  8.211143 -7.411579  2.230238
In 12.046084 -9.876254  0.043745
P 11.807389 -7.349536 -0.010447
In  6.985529 -6.636859  0.157877
P  6.825659 -4.137095  0.271243
In 10.580392 -6.542888  2.073580
P 10.345560 -4.020485  1.950784
In 16.613213 17.427584  0.176463
P  2.579812 -0.493013  0.393984
In 12.982770 17.540451  2.234419
P 27.807683 -0.399805  2.657421
In  1.347020  0.365193  2.471548
P 16.014683 -17.525735  2.251051
In  5.053601  0.295428  0.571143
P  5.216636  2.839340  0.190534
In 14.839471 -16.641105  0.151260
P 14.674718 -14.093570  0.105223
In  3.993197  3.735656  2.268668
P 18.286811 -14.140390  2.156632
In 17.076726 -13.262161  0.067986
P 16.882704 -10.705036  0.009184
In 13.483380 -13.224098  2.188376
P 13.275368 -10.694011  2.131594
In 15.663782 -9.839286  2.094599
P 15.405606 -7.294912  2.044772
In 19.277983 -9.856082 -0.049445
P 19.031142 -7.292655 -0.071550
In 14.170735 -6.452004 -0.044037
P 13.883783 -3.908598 -0.115681
In 17.790207 -6.435532  2.012662
P 17.497855 -3.885756  1.964998
%ENDBLOCK POSITIONS_ABS

FIX_ALL_CELL: TRUE
KPOINT_MP_GRID: 2 2 8
KPOINT_MP_OFFSET: 0.25 0.25 0.0625
