# written by ASE

%BLOCK LATTICE_CART
14.454049 20.441112  0.000000
14.454049 -20.441112  0.000000
-0.000000  0.000000  4.172525
%ENDBLOCK LATTICE_CART

%BLOCK POSITIONS_ABS
In  9.190468 -3.175383  0.160014
P  8.433773 -0.718043  0.614708
In  5.794117 -3.176989  1.813611
P  6.331022 -0.680378  1.427241
In  9.499136  0.373823  2.617928
P  8.911245  2.868180  2.250246
In 13.137261  0.428944  0.363819
P 12.533560  2.951144  0.198864
In  7.623312  3.696353  0.122027
P  7.420339  6.296651  0.089419
In 11.291117  3.818058  2.268165
P 11.036099  6.379923  2.191373
In  9.791572  7.238321  0.100029
P  9.628408  9.826157  0.070087
In  6.212215  7.216419  2.163762
P 20.504738 -10.633725  2.150611
In  8.422695 10.741248  2.157234
P 22.721187 -7.108165  2.162292
In 12.025885 10.681228  0.019254
P 11.906968 13.246791 -0.039667
In 21.503733 -6.185721  0.087631
P 21.370144 -3.564162  0.133521
In 10.694444 14.123633  2.044822
P 25.090750 -3.748939  1.995852
In 16.323324 -2.925574  0.139663
P 15.619554 -0.427361  0.326951
In 12.725242 -2.972252  2.242975
P 11.996868 -0.484929  2.463410
In 16.732136  0.492846  2.413163
P 16.104590  2.998691  2.270352
In 20.277439  0.657608  0.563036
P 19.643829  3.118867  0.136102
In 14.897146  3.868406  0.175043
P 14.649790  6.409410  0.077999
In 18.448269  3.939923  2.213582
P 18.254184  6.467951  2.123600
In 17.023934  7.282218  0.037283
P 16.841786  9.812721 -0.023138
In 13.419297  7.259090  2.159348
P 13.242212  9.813232  2.106919
In 15.632810 10.667537  2.062479
P 15.510765 13.211920  2.007410
In 19.240447 10.617858 -0.081570
P 19.086528 13.142544 -0.120160
In 14.317539 14.081472 -0.080505
P 14.284709 16.637468 -0.136136
In 17.913754 14.024621  1.963942
P  3.383187 -3.873765  1.919327
In 23.882872 -2.828065 -0.085770
P 24.177843 -0.319142 -0.493889
In 19.980554 -2.804050  2.257639
P 19.176403 -0.357082  2.640039
In 22.934759  0.608576  1.550964
P 23.202076  3.130778  2.018930
In 26.611829  0.452927 -0.276721
P 12.343178 -17.442092 -0.126026
In 22.012382  4.001955 -0.047401
P 21.871101  6.515345 -0.095980
In 25.618897  3.859267  1.969198
P 11.043667 -14.041338  1.972770
In  9.846584 -13.199214 -0.113584
P  9.684732 -10.676134 -0.097304
In 20.640974  7.300656  1.995265
P 20.475721  9.818616  2.002631
In  8.450489 -9.889089  1.985520
P  8.276961 -7.371644  1.953087
In 12.078187 -9.831635 -0.031613
P 11.872118 -7.299931  0.024115
In  7.054600 -6.590228 -0.147124
P  6.894734 -4.088436 -0.248318
In 10.643190 -6.493968  2.112477
P 10.413460 -3.969896  2.233936
In 16.697680 17.474995 -0.168597
P  2.604259 -0.438747 -0.314950
In 13.084554 17.495463  1.949864
P 27.821832 -0.405281  1.813048
In  1.366319  0.403089  1.785624
P 15.956028 -17.483019  1.934102
In  5.074278  0.352680 -0.527132
P  5.174795  2.900331 -0.156444
In 14.761766 -16.612662 -0.142682
P 14.653063 -14.057694 -0.082093
In  3.936657  3.791075  1.937811
P 18.260969 -14.079931  2.037146
In 17.054910 -13.195675 -0.048037
P 16.911257 -10.626408  0.007049
In 13.445177 -13.207357  2.007754
P 13.297779 -10.662601  2.053823
In 15.683246 -9.779961  2.093979
P 15.471586 -7.224463  2.145621
In 19.301501 -9.728196  0.061475
P 19.124773 -7.143822  0.084368
In 14.232969 -6.384062  0.062114
P 13.960693 -3.837301  0.143045
In 17.853901 -6.331899  2.174329
P 17.606075 -3.770155  2.212616
%ENDBLOCK POSITIONS_ABS

KPOINT_MP_GRID: 2 2 8
KPOINT_MP_OFFSET: 0.25 0.25 0.0625
