# written by ASE

%BLOCK LATTICE_CART
14.454049 20.441112  0.000000
14.454049 -20.441112  0.000000
-0.000000  0.000000  4.172525
%ENDBLOCK LATTICE_CART

%BLOCK POSITIONS_ABS
In  9.187310 -3.169970  0.167059
P  8.428104 -0.713126  0.626053
In  5.790522 -3.181422  1.806887
P  6.323338 -0.683217  1.426651
In  9.510589  0.374278  2.623715
P  8.914399  2.867309  2.256257
In 13.155389  0.429111  0.354136
P 12.538987  2.949056  0.194610
In  7.624023  3.691262  0.127544
P  7.419118  6.292547  0.089302
In 11.294656  3.814712  2.263578
P 11.036578  6.376572  2.188027
In  9.790430  7.233839  0.096848
P  9.628191  9.822004  0.067914
In  6.210765  7.212834  2.163492
P 20.504047 -10.636679  2.149505
In  8.422451 10.736886  2.155158
P 22.721779 -7.112349  2.160225
In 12.025078 10.678451  0.018436
P 11.906405 13.243852 -0.040012
In 21.505203 -6.190053  0.085493
P 21.372128 -3.569106  0.131831
In 10.694243 14.120386  2.044413
P 25.090044 -3.752273  1.998069
In 16.328072 -2.928059  0.135912
P 15.636437 -0.427655  0.320217
In 12.728226 -2.970389  2.243893
P 12.009087 -0.480953  2.453814
In 16.745534  0.493311  2.406427
P 16.105980  2.996173  2.267280
In 20.282449  0.662511  0.556384
P 19.642123  3.120894  0.134879
In 14.899725  3.868880  0.171642
P 14.650890  6.409333  0.076228
In 18.446150  3.942949  2.211807
P 18.254497  6.470626  2.122753
In 17.023721  7.284602  0.036396
P 16.842007  9.814445 -0.022914
In 13.418820  7.258114  2.157659
P 13.242286  9.811847  2.106095
In 15.632233 10.667605  2.062680
P 15.510169 13.211526  2.008110
In 19.240223 10.620396 -0.080080
P 19.086052 13.144658 -0.119049
In 14.316242 14.079465 -0.079815
P 14.281583 16.635329 -0.134758
In 17.912348 14.026046  1.965146
P  3.379704 -3.873049  1.918643
In 23.882399 -2.834360 -0.083186
P 24.172748 -0.324674 -0.488575
In 19.986468 -2.809593  2.254774
P 19.189922 -0.359883  2.632922
In 22.935347  0.608045  1.556624
P 23.198599  3.131719  2.019800
In 26.605797  0.452731 -0.270851
P 12.337839 -17.441815 -0.124791
In 22.010372  4.004988 -0.046069
P 21.870607  6.518431 -0.094564
In 25.615446  3.861594  1.970297
P 11.041559 -14.039232  1.974571
In  9.846031 -13.195325 -0.111769
P  9.684575 -10.672504 -0.095894
In 20.640996  7.304757  1.996616
P 20.476078  9.822371  2.004153
In  8.450857 -9.885139  1.986857
P  8.278082 -7.367889  1.953572
In 12.077800 -9.827344 -0.030408
P 11.872454 -7.295244  0.024904
In  7.054365 -6.588570 -0.146600
P  6.895045 -4.087048 -0.253630
In 10.643850 -6.487422  2.113368
P 10.412755 -3.962913  2.240698
In 16.692349 17.474929 -0.169220
P  2.595887 -0.438103 -0.308315
In 13.082491 17.493280  1.951466
P 27.813151 -0.406628  1.818740
In  1.356273  0.403570  1.792955
P 15.950737 -17.482393  1.935991
In  5.066114  0.352862 -0.525973
P  5.173225  2.899660 -0.157367
In 14.757148 -16.611919 -0.140936
P 14.649948 -14.056584 -0.080929
In  3.933212  3.789881  1.936912
P 18.258219 -14.080897  2.037348
In 17.052562 -13.195960 -0.047811
P 16.910195 -10.626501  0.007055
In 13.443025 -13.204946  2.008884
P 13.296543 -10.659832  2.054943
In 15.682830 -9.779123  2.094051
P 15.472762 -7.223337  2.145027
In 19.301269 -9.730186  0.060385
P 19.125661 -7.145481  0.082755
In 14.234611 -6.382449  0.061547
P 13.963608 -3.835561  0.143672
In 17.855795 -6.332634  2.172796
P 17.610959 -3.770387  2.209249
%ENDBLOCK POSITIONS_ABS

KPOINT_MP_GRID: 2 2 8
KPOINT_MP_OFFSET: 0.25 0.25 0.0625
