#######################################################
#CASTEP cell file: /home/eng/phrbqc/GitHub/InPDislocs/Devel/Data_Devel/EOS/CASTEP_Files/WZ_EOS_1.0243/WZ_EOS_1.0243.cell
#Created using the Atomic Simulation Environment (ASE)#
#######################################################

%BLOCK LATTICE_CART
 4.266007 -0.000044  0.000000
 2.132965  3.694492 -0.000000
 0.000000 -0.000000  7.005705
%ENDBLOCK LATTICE_CART

%BLOCK POSITIONS_ABS
P  2.132967  1.231474 -0.000091
P  4.266001  2.462981  3.502762
In  2.132980  1.231481  2.623237
In  4.265988  2.462973  6.126090
%ENDBLOCK POSITIONS_ABS

KPOINT_MP_GRID: 11 11 5
KPOINT_MP_OFFSET: 0.045455 0.045455 0.1
