# written by ASE

%BLOCK LATTICE_CART
 5.894940 -0.000004 -0.000004
-0.000004  5.900841 -0.002954
-0.000004 -0.002954  5.900841
%ENDBLOCK LATTICE_CART

%BLOCK POSITIONS_ABS
P  1.473731  1.472994  4.424891
P  4.421203  1.474469  1.474469
P  1.473731  4.424891  1.472994
P  4.421199  4.423412  4.423412
In  0.000000  0.000000  0.000000
In  2.947468 -0.001479  2.950419
In -0.000004  2.948943  2.948943
In  2.947468  2.950419 -0.001479
%ENDBLOCK POSITIONS_ABS

FIX_ALL_CELL: TRUE
KPOINT_MP_GRID: 6 6 6
KPOINT_MP_OFFSET: 0.08333333333333333 0.08333333333333333 0.08333333333333333
