# written by ASE

%BLOCK LATTICE_CART
11.801682 -0.000008 -0.000008
-0.000008 11.801682 -0.000008
-0.000008 -0.000008 11.801682
%ENDBLOCK LATTICE_CART

%BLOCK POSITIONS_ABS
P  1.582593  1.582593  4.480953
P  4.480951  1.582590  1.582590
P  1.582593  4.480953  1.582593
P  5.082587  5.082602  5.082602
In -0.002851 -0.002851 -0.002851
In  2.962633  0.045029  2.962634
In  0.045030  2.962634  2.962634
In  2.962633  2.962634  0.045029
P  1.486318  1.486318 10.344481
P  4.437801  1.475849  7.357514
P  1.475847  4.437801  7.357514
P  4.407558  4.407558 10.296886
In  0.035502  0.035501  5.883291
In  2.957277  0.010546  8.849481
In  0.010545  2.957277  8.849481
In  3.193480  3.193481  5.888233
P  1.475847  7.357514  4.437801
P  4.437801  7.357514  1.475849
P  1.486318 10.344482  1.486318
P  4.407558 10.296886  4.407558
In  0.035502  5.883291  0.035501
In  3.193480  5.888233  3.193481
In  0.010545  8.849481  2.957277
In  2.957277  8.849481  0.010546
P  1.488290  7.372702 10.320011
P  4.528938  7.169604  7.169604
P  1.488290 10.320011  7.372702
P  4.444995 10.312718 10.312718
In -0.044273  5.889609  5.889609
In  2.983117  5.927141  8.792221
In -0.006768  8.839046  8.839046
In  2.983117  8.792221  5.927141
P  7.357514  1.475848  4.437802
P 10.344482  1.486318  1.486318
P  7.357514  4.437802  1.475848
P 10.296885  4.407558  4.407558
In  5.883291  0.035500  0.035500
In  8.849481  0.010545  2.957277
In  5.888232  3.193475  3.193474
In  8.849481  2.957277  0.010545
P  7.372703  1.488289 10.320011
P 10.320011  1.488288  7.372702
P  7.169610  4.528939  7.169611
P 10.312721  4.444994 10.312720
In  5.889608 -0.044272  5.889609
In  8.839046 -0.006768  8.839046
In  5.927143  2.983117  8.792222
In  8.792222  2.983118  5.927143
P  7.169610  7.169611  4.528939
P 10.320011  7.372702  1.488288
P  7.372703 10.320012  1.488289
P 10.312720 10.312720  4.444994
In  5.889608  5.889609 -0.044272
In  8.792222  5.927143  2.983118
In  5.927143  8.792222  2.983117
In  8.839046  8.839046 -0.006768
P  7.368279  7.368278 10.293282
P 10.293282  7.368279  7.368279
P  7.368279 10.293282  7.368278
P 10.322641 10.322641 10.322641
In  8.753292  5.851196  8.753292
In  5.851197  8.753289  8.753289
In  8.753292  8.753292  5.851196
%ENDBLOCK POSITIONS_ABS

KPOINT_MP_GRID: 4 4 4
KPOINT_MP_OFFSET: 0.125 0.125 0.125
