# written by ASE

%BLOCK LATTICE_CART
11.801682 -0.000008 -0.000008
-0.000008 11.801682 -0.000008
-0.000008 -0.000008 11.801682
%ENDBLOCK LATTICE_CART

%BLOCK POSITIONS_ABS
P  1.583109  1.583109  4.482739
P  4.482718  1.583070  1.583070
P  1.583110  4.482740  1.583109
P  5.084150  5.084334  5.084332
In -0.002905 -0.002903 -0.002903
In  2.963555  0.046632  2.963568
In  0.046639  2.963565  2.963565
In  2.963555  2.963568  0.046632
P  1.487025  1.487026 10.345939
P  4.438256  1.473969  7.358572
P  1.473944  4.438252  7.358574
P  4.407125  4.407124 10.295386
In  0.035035  0.035025  5.882884
In  2.957154  0.010600  8.850890
In  0.010592  2.957149  8.850892
In  3.194576  3.194593  5.893074
P  1.473944  7.358574  4.438252
P  4.438256  7.358572  1.473968
P  1.487025 10.345939  1.487026
P  4.407125 10.295387  4.407124
In  0.035036  5.882884  0.035025
In  3.194577  5.893074  3.194593
In  0.010592  8.850892  2.957149
In  2.957154  8.850890  0.010600
P  1.486943  7.373854 10.321058
P  4.522605  7.171222  7.171222
P  1.486943 10.321058  7.373853
P  4.445601 10.312016 10.312016
In -0.046669  5.889228  5.889227
In  2.980135  5.927324  8.794235
In -0.008034  8.838133  8.838133
In  2.980135  8.794236  5.927324
P  7.358574  1.473962  4.438264
P 10.345941  1.487029  1.487029
P  7.358574  4.438264  1.473961
P 10.295383  4.407125  4.407125
In  5.882881  0.035006  0.035006
In  8.850895  0.010595  2.957155
In  5.893065  3.194505  3.194504
In  8.850895  2.957155  0.010595
P  7.373857  1.486932 10.321067
P 10.321064  1.486929  7.373853
P  7.171297  4.522611  7.171307
P 10.312040  4.445601 10.312039
In  5.889221 -0.046660  5.889228
In  8.838132 -0.008038  8.838133
In  5.927346  2.980137  8.794249
In  8.794246  2.980148  5.927350
P  7.171296  7.171306  4.522611
P 10.321064  7.373853  1.486929
P  7.373857 10.321067  1.486932
P 10.312040 10.312039  4.445601
In  5.889221  5.889228 -0.046660
In  8.794246  5.927349  2.980148
In  5.927345  8.794249  2.980137
In  8.838132  8.838133 -0.008038
P  7.367597  7.367591 10.291621
P 10.291620  7.367600  7.367600
P  7.367597 10.291622  7.367591
P 10.322266 10.322265 10.322265
In  8.752243  5.850607  8.752241
In  5.850621  8.752212  8.752212
In  8.752243  8.752241  5.850607
%ENDBLOCK POSITIONS_ABS

KPOINT_MP_GRID: 4 4 4
KPOINT_MP_OFFSET: 0.125 0.125 0.125
