# written by ASE

%BLOCK LATTICE_CART
 5.904381 -0.000004 -0.000004
-0.000004  5.900841  0.001766
-0.000004  0.001766  5.900841
%ENDBLOCK LATTICE_CART

%BLOCK POSITIONS_ABS
P  1.476092  1.476534  4.426071
P  4.428284  1.475649  1.475649
P  1.476092  4.426071  1.476534
P  4.428280  4.426953  4.426953
In  0.000000  0.000000  0.000000
In  2.952189  0.000881  2.950418
In -0.000004  2.951304  2.951304
In  2.952189  2.950419  0.000881
%ENDBLOCK POSITIONS_ABS

FIX_ALL_CELL: TRUE
KPOINT_MP_GRID: 6 6 6
KPOINT_MP_OFFSET: 0.08333333333333333 0.08333333333333333 0.08333333333333333
