#######################################################
#CASTEP cell file: /home/eng/phrbqc/GitHub/InPDislocs/Devel/Data_Devel/EOS/CASTEP_Files/ZB_EOS_1.1735/ZB_EOS_1.1735.cell
#Created using the Atomic Simulation Environment (ASE)#
#######################################################

%BLOCK LATTICE_CART
 6.925072  0.000000 -0.000000
 0.000000  6.925072 -0.000000
-0.000000 -0.000000  6.925072
%ENDBLOCK LATTICE_CART

%BLOCK POSITIONS_ABS
P  1.731268  1.731268  5.193804
P  5.193804  1.731268  1.731268
P  1.731268  5.193804  1.731268
P  5.193804  5.193804  5.193804
In  0.000000  0.000000  0.000000
In  3.462536  0.000000  3.462536
In  0.000000  3.462536  3.462536
In  3.462536  3.462536  0.000000
%ENDBLOCK POSITIONS_ABS

KPOINT_MP_GRID: 5 5 5
KPOINT_MP_OFFSET: 0.1 0.1 0.1
