# written by ASE

%BLOCK LATTICE_CART
 5.892580 -0.000004 -0.000004
-0.000004  5.900841 -0.004134
-0.000004 -0.004134  5.900841
%ENDBLOCK LATTICE_CART

%BLOCK POSITIONS_ABS
P  1.473141  1.472108  4.424596
P  4.419433  1.474174  1.474174
P  1.473141  4.424596  1.472108
P  4.419429  4.422527  4.422527
In  0.000000  0.000000  0.000000
In  2.946288 -0.002069  2.950419
In -0.000004  2.948353  2.948353
In  2.946288  2.950419 -0.002069
%ENDBLOCK POSITIONS_ABS

FIX_ALL_CELL: TRUE
KPOINT_MP_GRID: 6 6 6
KPOINT_MP_OFFSET: 0.08333333333333333 0.08333333333333333 0.08333333333333333
