# written by ASE

%BLOCK LATTICE_CART
 4.172831  0.000000  0.000000
-0.000000  7.227555 -0.000000
 0.000000  4.788255 10.221306
%ENDBLOCK LATTICE_CART

%BLOCK POSITIONS_ABS
In  2.086415  3.613777  0.078962
In  0.000000  0.000000  0.078962
In  0.000000  2.409185  3.447999
In  2.086415  6.022962  3.447999
In  2.086415  1.204592  6.731888
In  0.000000  4.818370  6.731888
P  0.000000  2.409185  0.905626
P  2.086415  6.022962  0.905626
P  0.000000  4.818370  4.209655
P  2.086415  1.204592  4.209655
P  0.000000 -0.000000  7.623807
P  2.086415  3.613777  7.623807
%ENDBLOCK POSITIONS_ABS

FIX_ALL_CELL: TRUE
KPOINT_MP_GRID: 8 6 4
KPOINT_MP_OFFSET: 0.0625 0.08333333333333333 0.125

%BLOCK IONIC_CONSTRAINTS
1 In 1 1 0 0
2 In 1 0 1 0
3 In 2 1 0 0
4 In 2 0 1 0
5 In 3 1 0 0
6 In 3 0 1 0
7 In 4 1 0 0
8 In 4 0 1 0
9 In 5 1 0 0
10 In 5 0 1 0
11 In 6 1 0 0
12 In 6 0 1 0
13 P 1 1 0 0
14 P 1 0 1 0
15 P 2 1 0 0
16 P 2 0 1 0
17 P 3 1 0 0
18 P 3 0 1 0
19 P 4 1 0 0
20 P 4 0 1 0
21 P 5 1 0 0
22 P 5 0 1 0
23 P 6 1 0 0
24 P 6 0 1 0
%ENDBLOCK IONIC_CONSTRAINTS
