# written by ASE

%BLOCK LATTICE_CART
14.454049 20.441112  0.000000
14.454049 -20.441112  0.000000
-0.000000  0.000000  4.172525
%ENDBLOCK LATTICE_CART

%BLOCK POSITIONS_ABS
In  9.163004 -3.148580  0.169677
P  8.418005 -0.693364  0.603592
In  5.762716 -3.155683  1.835608
P  6.309503 -0.666056  1.443373
In  9.556776  0.360196  2.587970
P  8.960347  2.853217  2.235896
In 13.250422  0.413113  0.236769
P 12.614914  2.929338  0.132470
In  7.652502  3.651607  0.110716
P  7.440905  6.252369  0.070267
In 11.355855  3.782799  2.208160
P 11.073970  6.343362  2.150259
In  9.818106  7.186582  0.061649
P  9.642139  9.774188  0.044026
In  6.229004  7.166510  2.146261
P 20.511563 -10.687595  2.134434
In  8.434890 10.674968  2.130765
P 22.710266 -7.180502  2.127617
In 12.023254 10.675852  0.018979
P 11.868800 13.253282  0.002481
In 21.461609 -6.327333  0.044879
P 21.269870 -3.748827  0.049888
In 10.655484 14.142512  2.091371
P 25.002952 -3.703825  2.079404
In 16.318608 -2.966629  0.106577
P 15.754415 -0.440631  0.135481
In 12.720120 -2.969763  2.211464
P 12.072673 -0.470604  2.342028
In 16.887730  0.453679  2.213293
P 16.209481  2.956495  2.178179
In 20.484094  0.518043  0.069625
P 19.756639  3.004823  0.038515
In 14.987625  3.836779  0.091687
P 14.690315  6.383105  0.039569
In 18.552084  3.892876  2.125854
P 18.300498  6.427464  2.089263
In 17.061177  7.258176  0.003350
P 16.844147  9.794335 -0.017270
In 13.452109  7.240231  2.124897
P 13.244890  9.801422  2.104278
In 15.633041 10.658415  2.069489
P 15.486249 13.208242  2.042725
In 19.219019 10.656332 -0.045231
P 19.054051 13.175145 -0.078099
In 14.283267 14.070473 -0.042881
P 14.229724 16.633949 -0.080461
In 17.880259 14.050094  2.007270
P  3.347109 -3.850529  1.968177
In 23.698117 -2.971438 -0.000609
P 23.363719 -0.360447 -0.004389
In 19.968178 -2.942802  2.143057
P 19.414144 -0.418097  2.160651
In 23.440937  0.952099  2.080208
P 23.247313  3.382961  2.071313
In 26.517869  0.495211 -0.137728
P 12.309767 -17.395707 -0.081325
In 21.995846  4.115154 -0.011404
P 21.877186  6.608663 -0.032899
In 25.700301  4.030083  2.009738
P 11.072185 -13.909679  2.015407
In  9.853292 -13.114440 -0.069879
P  9.670650 -10.603395 -0.069882
In 20.641830  7.371827  2.055102
P 20.458780  9.879323  2.040417
In  8.433934 -9.832362  2.013122
P  8.250081 -7.322109  1.978643
In 12.070635 -9.784684 -0.015217
P 11.848997 -7.259030  0.035051
In  7.021893 -6.559014 -0.120123
P  6.864537 -4.062524 -0.227074
In 10.620258 -6.455184  2.124459
P 10.392939 -3.933527  2.244312
In 16.648109 17.479130 -0.116706
P  2.526826 -0.431169 -0.231344
In 13.025042 17.489416  2.007321
P 27.684242 -0.399116  1.942984
In  1.289662  0.410634  1.874651
P 15.939143 -17.478208  1.975262
In  5.018475  0.340897 -0.501565
P  5.180216  2.886710 -0.148930
In 14.760224 -16.599324 -0.101808
P 14.646468 -14.044018 -0.060236
In  3.938497  3.770138  1.946981
P 18.265455 -14.102080  2.038338
In 17.058874 -13.220815 -0.045730
P 16.896995 -10.655191  0.005079
In 13.484574 -13.131775  2.029429
P 13.298574 -10.603336  2.069413
In 15.694421 -9.770414  2.093082
P 15.453618 -7.224331  2.136639
In 19.295203 -9.804988  0.046164
P 19.081151 -7.232624  0.061342
In 14.219770 -6.380665  0.054022
P 13.946994 -3.836575  0.116342
In 17.842395 -6.373857  2.150587
P 17.582403 -3.818926  2.184033
%ENDBLOCK POSITIONS_ABS

KPOINT_MP_GRID: 2 2 8
KPOINT_MP_OFFSET: 0.25 0.25 0.0625
