# written by ASE

%BLOCK LATTICE_CART
14.454049 20.441112  0.000000
14.454049 -20.441112  0.000000
-0.000000  0.000000  4.172525
%ENDBLOCK LATTICE_CART

%BLOCK POSITIONS_ABS
In  9.167583 -3.153340  0.161302
P  8.423865 -0.697604  0.580816
In  5.768251 -3.147252  1.841867
P  6.316370 -0.659306  1.445032
In  9.546081  0.358017  2.572369
P  8.955228  2.852634  2.225533
In 13.237743  0.413096  0.245724
P 12.607673  2.930860  0.134435
In  7.648762  3.653166  0.101223
P  7.439745  6.254062  0.068287
In 11.350294  3.785367  2.209797
P 11.071918  6.346249  2.152896
In  9.816692  7.189406  0.064127
P  9.641615  9.777008  0.046188
In  6.227924  7.168204  2.144551
P 20.511395 -10.685592  2.134165
In  8.434181 10.678051  2.132868
P 22.710145 -7.177141  2.131233
In 12.024147 10.675554  0.021190
P 11.872300 13.251880  0.006540
In 21.462266 -6.319940  0.048717
P 21.281653 -3.738309  0.054751
In 10.658405 14.137241  2.096122
P 25.015029 -3.710935  2.089626
In 16.321585 -2.963164  0.108540
P 15.745251 -0.438051  0.145184
In 12.720993 -2.971284  2.209902
P 12.065378 -0.473585  2.350346
In 16.876574  0.458491  2.223497
P 16.203587  2.962114  2.182797
In 20.469977  0.537323  0.093473
P 19.743384  3.024197  0.046381
In 14.981350  3.838668  0.095866
P 14.687464  6.385251  0.042189
In 18.542449  3.906985  2.132715
P 18.296667  6.438455  2.092421
In 17.057023  7.264514  0.006250
P 16.842700  9.800066 -0.016748
In 13.450687  7.241510  2.127283
P 13.245334  9.802472  2.106399
In 15.632253 10.664035  2.069919
P 15.487373 13.213809  2.040313
In 19.221143 10.653640 -0.046284
P 19.056341 13.173338 -0.079699
In 14.284663 14.076231 -0.045608
P 14.233216 16.639733 -0.084785
In 17.883729 14.050394  2.005465
P  3.352445 -3.849184  1.967668
In 23.715892 -2.977781  0.010865
P 23.397162 -0.381014  0.043259
In 19.977508 -2.934626  2.148445
P 19.406230 -0.412434  2.182489
In 23.483614  0.920664  2.130533
P 23.246339  3.352081  2.075699
In 26.476523  0.486984 -0.186578
P 12.310097 -17.398648 -0.092897
In 22.000350  4.102052 -0.007931
P 21.880512  6.597584 -0.031289
In 25.696064  4.026076  1.998934
P 11.070354 -13.912846  2.008068
In  9.853487 -13.116472 -0.076717
P  9.671570 -10.605401 -0.072782
In 20.645359  7.365149  2.056754
P 20.460523  9.873693  2.039420
In  8.434234 -9.834553  2.010599
P  8.250643 -7.324058  1.977152
In 12.072609 -9.788567 -0.017719
P 11.851282 -7.262798  0.032573
In  7.023506 -6.558882 -0.121571
P  6.865209 -4.062302 -0.222143
In 10.621801 -6.460784  2.121772
P 10.396483 -3.939324  2.236253
In 16.653734 17.480160 -0.117359
P  2.520791 -0.429651 -0.246059
In 13.030144 17.499690  2.002911
P 27.669728 -0.391013  1.896215
In  1.278936  0.409904  1.858227
P 15.939677 -17.480149  1.969421
In  5.017018  0.338260 -0.500923
P  5.177688  2.885650 -0.149723
In 14.758726 -16.603415 -0.107622
P 14.646517 -14.047662 -0.064224
In  3.937898  3.769214  1.945741
P 18.265203 -14.102604  2.036860
In 17.058296 -13.221523 -0.047120
P 16.898106 -10.655232  0.004193
In 13.483579 -13.137710  2.025395
P 13.299852 -10.608179  2.066952
In 15.694810 -9.771351  2.092165
P 15.455440 -7.224403  2.136195
In 19.295612 -9.801867  0.045840
P 19.082603 -7.228569  0.062110
In 14.221160 -6.381117  0.053450
P 13.950253 -3.836682  0.114985
In 17.843283 -6.369227  2.151149
P 17.589666 -3.813206  2.185778
%ENDBLOCK POSITIONS_ABS

KPOINT_MP_GRID: 2 2 8
KPOINT_MP_OFFSET: 0.25 0.25 0.0625
