# written by ASE

%BLOCK LATTICE_CART
 5.901274  0.000000  0.000000
 0.000000  5.901274  0.000000
 0.000000  4.425955 17.703821
%ENDBLOCK LATTICE_CART

%BLOCK POSITIONS_ABS
In  0.000000  2.950637 14.575167
In  2.950637  2.950637 11.707230
In  2.950637  0.000000 14.575167
In  2.950637  0.000000  3.115635
In  2.950637  2.950637  0.183501
In  0.000000  0.000000  0.183501
In  0.000000  2.950637  3.115635
In  0.000000  0.000000 11.707230
In  2.950637  0.000000  8.836908
In  2.950637  2.950637  5.973751
In  0.000000  0.000000  5.973751
In  0.000000  2.950637  8.836908
P  1.475318  4.425955 16.001040
P  1.475318  1.475318 13.125219
P  4.425955  4.425955 13.125219
P  4.425955  1.475318 16.001040
P  4.425955  1.475318  4.537970
P  4.425955  4.425955  7.398265
P  4.425955  1.475318 10.260020
P  1.475318  4.425955  4.537970
P  1.475318  1.475318  1.656308
P  4.425955  4.425955  1.656308
P  1.475318  1.475318  7.398265
P  1.475318  4.425955 10.260020
%ENDBLOCK POSITIONS_ABS

FIX_ALL_CELL: TRUE
KPOINT_MP_GRID: 6 6 2
KPOINT_MP_OFFSET: 0.08333333333333333 0.08333333333333333 0.25

%BLOCK IONIC_CONSTRAINTS
1 In 1 1 0 0
2 In 1 0 1 0
3 In 2 1 0 0
4 In 2 0 1 0
5 In 3 1 0 0
6 In 3 0 1 0
7 In 4 1 0 0
8 In 4 0 1 0
9 In 5 1 0 0
10 In 5 0 1 0
11 In 6 1 0 0
12 In 6 0 1 0
13 In 7 1 0 0
14 In 7 0 1 0
15 In 8 1 0 0
16 In 8 0 1 0
17 In 9 1 0 0
18 In 9 0 1 0
19 In 10 1 0 0
20 In 10 0 1 0
21 In 11 1 0 0
22 In 11 0 1 0
23 In 12 1 0 0
24 In 12 0 1 0
25 P 1 1 0 0
26 P 1 0 1 0
27 P 2 1 0 0
28 P 2 0 1 0
29 P 3 1 0 0
30 P 3 0 1 0
31 P 4 1 0 0
32 P 4 0 1 0
33 P 5 1 0 0
34 P 5 0 1 0
35 P 6 1 0 0
36 P 6 0 1 0
37 P 7 1 0 0
38 P 7 0 1 0
39 P 8 1 0 0
40 P 8 0 1 0
41 P 9 1 0 0
42 P 9 0 1 0
43 P 10 1 0 0
44 P 10 0 1 0
45 P 11 1 0 0
46 P 11 0 1 0
47 P 12 1 0 0
48 P 12 0 1 0
%ENDBLOCK IONIC_CONSTRAINTS
