# written by ASE

%BLOCK LATTICE_CART
14.454049 20.441112  0.000000
14.454049 -20.441112  0.000000
-0.000000  0.000000  4.172525
%ENDBLOCK LATTICE_CART

%BLOCK POSITIONS_ABS
In  9.901299 -2.945106  3.657969
P 10.273697 -0.415167  3.118368
In  6.180260 -2.960886  1.973449
P  5.976694 -0.399128  2.110126
In  8.162089  0.702966  2.486546
P  8.259137  3.177819  2.271109
In 11.535705  0.500621  0.980148
P 11.809022  3.010063  0.442803
In  7.027849  3.983167  0.165771
P  7.126767  6.504068  0.090884
In 10.685347  3.958344  2.496831
P 10.758586  6.479960  2.300539
In  9.551458  7.308023  0.188999
P  9.637818  9.836606 -0.002557
In  5.912204  7.313948  2.159928
P 20.457647 -10.596478  2.002784
In  8.426250 10.662024  2.060803
P 22.971504 -7.248780  1.865222
In 12.062809 10.646713  0.061265
P 12.150482 13.176489 -0.122283
In 21.776483 -6.404284  3.926397
P 21.871821 -3.873231  3.716796
In 10.941423 13.997910  1.940292
P 25.448977 -3.923587  1.831565
In 17.142059 -2.962512  3.596636
P 17.415687 -0.424785  3.218659
In 13.545504 -2.976329  1.496970
P 13.859951 -0.438352  1.080579
In 15.063874  0.471818  3.123821
P 15.386334  2.990881  2.638726
In 18.621343  0.472388  1.088839
P 18.983190  2.989918  0.597832
In 14.219816  3.882674  0.531075
P 14.356097  6.425413  0.301182
In 17.801538  3.878014  2.668595
P 17.948100  6.425270  2.424305
In 16.769369  7.293953  0.320056
P 16.879960  9.842595  0.134099
In 13.179914  7.293322  2.365297
P 13.272784  9.825530  2.167475
In 15.683133 10.690072  2.205584
P 15.758736 13.235481  2.077357
In 19.299126 10.707935  0.109174
P 19.396936 13.267826 -0.018105
In 14.546124 14.069239 -0.020124
P 14.571707 16.614537 -0.066129
In 18.173318 14.095059  2.063605
P  3.755785 -3.792236  2.019748
In 24.274874 -3.025265  3.908120
P 24.461839 -0.619726  3.227568
In 20.728273 -2.962598  1.591523
P 20.958616 -0.425554  1.236134
In 22.222279  0.428711  3.282854
P 22.613136  2.940067  2.665569
In 26.454705  0.370386  4.356895
P 26.337717  2.927455  0.300865
In 21.424829  3.845415  0.571691
P 21.553690  6.397520  0.309537
In 25.068733  3.720892  2.410372
P 10.715901 -14.134119  2.248738
In  9.536183 -13.232372  4.334233
P  9.632867 -10.659020  4.204259
In 20.371790  7.274828  2.384573
P 20.483215  9.832658  2.204418
In  8.453180 -9.763275  2.114967
P  8.559424 -7.192604  1.995718
In 12.052655 -9.811034  4.089617
P 12.171529 -7.251674  3.905836
In  7.371099 -6.308618  4.085073
P  7.458007 -3.723092  4.035110
In 10.989813 -6.370870  1.807908
P 11.104943 -3.813977  1.588091
In  2.519335 -2.969106  4.110597
P  2.414305 -0.418551  0.005001
In 13.356112 17.459998  2.013330
P 27.759538 -0.440283  2.204623
In  1.208854  0.422545  2.091662
P 15.530622 -17.470011  2.212468
In  4.763412  0.487241  0.031425
P  4.678880  3.030147  0.102136
In 14.299047 -16.645519  4.309322
P 14.349939 -14.088565  4.224197
In  3.460552  3.864405  2.185779
P 17.974881 -14.031468  2.116697
In 16.756180 -13.204201  4.193202
P 16.847757 -10.654631  4.060641
In 13.130817 -13.252199  2.135066
P 13.238312 -10.686094  2.010817
In 15.649555 -9.809339  1.961394
P 15.771769 -7.257590  1.768575
In 19.251255 -9.771756  4.070452
P 19.360682 -7.234664  3.872361
In 14.590045 -6.393907  3.837299
P 14.723089 -3.843063  3.606794
In 18.179410 -6.376826  1.763717
P 18.312138 -3.833190  1.540180
%ENDBLOCK POSITIONS_ABS

KPOINT_MP_GRID: 2 2 8
KPOINT_MP_OFFSET: 0.25 0.25 0.0625
