# written by ASE

%BLOCK LATTICE_CART
14.454049 20.441112  0.000000
14.454049 -20.441112  0.000000
-0.000000  0.000000  4.172525
%ENDBLOCK LATTICE_CART

%BLOCK POSITIONS_ABS
In  9.902639 -2.944983  3.656332
P 10.283983 -0.418721  3.102809
In  6.180745 -2.958484  1.972579
P  5.976249 -0.397988  2.112692
In  8.163301  0.697814  2.500404
P  8.257257  3.173726  2.274606
In 11.539134  0.502523  0.966910
P 11.807318  3.013964  0.444840
In  7.028211  3.982213  0.169028
P  7.126997  6.502976  0.091693
In 10.681464  3.958422  2.499694
P 10.757766  6.479935  2.301379
In  9.551179  7.308173  0.189895
P  9.637481  9.836535 -0.002094
In  5.912402  7.312844  2.160502
P 20.457430 -10.597526  2.002805
In  8.425768 10.661485  2.061234
P 22.971141 -7.249469  1.864971
In 12.062663 10.645679  0.062451
P 12.150680 13.175341 -0.121905
In 21.775795 -6.405428  3.926093
P 21.871264 -3.874831  3.715976
In 10.941409 13.995886  1.940710
P 25.448756 -3.925621  1.833926
In 17.141910 -2.962157  3.595050
P 17.417771 -0.424212  3.216623
In 13.544931 -2.975519  1.494417
P 13.862971 -0.437896  1.075888
In 15.065755  0.472109  3.120610
P 15.385113  2.992697  2.641780
In 18.622377  0.473189  1.087727
P 18.982004  2.992074  0.601922
In 14.218509  3.883953  0.534534
P 14.355741  6.426148  0.302968
In 17.799906  3.879465  2.673196
P 17.947282  6.426429  2.426572
In 16.768614  7.294816  0.322467
P 16.879650  9.843513  0.135202
In 13.179098  7.292573  2.367186
P 13.272619  9.824902  2.168598
In 15.682578 10.690653  2.206689
P 15.758586 13.236280  2.077325
In 19.298906 10.708641  0.109796
P 19.397319 13.268667 -0.018717
In 14.545553 14.069894 -0.020168
P 14.570672 16.615251 -0.065940
In 18.173393 14.095711  2.063054
P  3.756152 -3.791429  2.018693
In 24.275114 -3.029556  3.911113
P 24.458313 -0.621883  3.241063
In 20.728339 -2.963287  1.590212
P 20.959239 -0.425725  1.234369
In 22.220743  0.429673  3.281026
P 22.613180  2.940647  2.666849
In 26.460952  0.372549  4.347113
P 26.338580  2.928044  0.300419
In 21.423876  3.846173  0.573769
P 21.553066  6.398154  0.311158
In 25.068708  3.719933  2.411028
P 10.715449 -14.135093  2.248134
In  9.535682 -13.233138  4.333891
P  9.632539 -10.659673  4.203601
In 20.370877  7.275032  2.386417
P 20.482802  9.832967  2.205007
In  8.452895 -9.763592  2.114364
P  8.559406 -7.192867  1.993974
In 12.052404 -9.811946  4.088089
P 12.171610 -7.252753  3.903860
In  7.371581 -6.307991  4.083180
P  7.458803 -3.721454  4.034250
In 10.990190 -6.371819  1.805867
P 11.104755 -3.815035  1.586390
In  2.518695 -2.969214  4.109697
P  2.414177 -0.418677  0.004792
In 13.354383 17.459750  2.013882
P 27.760272 -0.440082  2.197595
In  1.209989  0.422730  2.091278
P 15.530800 -17.470056  2.211153
In  4.762738  0.487702  0.032820
P  4.678440  3.030451  0.102261
In 14.299759 -16.645109  4.307688
P 14.350153 -14.088616  4.222640
In  3.460759  3.864200  2.185517
P 17.975044 -14.031925  2.115891
In 16.756504 -13.204565  4.192282
P 16.847518 -10.655137  4.059614
In 13.130398 -13.252913  2.133442
P 13.238112 -10.686872  2.009286
In 15.649303 -9.809779  1.960312
P 15.771599 -7.258072  1.767348
In 19.251023 -9.772691  4.070386
P 19.360143 -7.235573  3.872092
In 14.589956 -6.394145  3.836019
P 14.722696 -3.843371  3.604599
In 18.179187 -6.377154  1.763446
P 18.311774 -3.833551  1.539000
%ENDBLOCK POSITIONS_ABS

KPOINT_MP_GRID: 2 2 8
KPOINT_MP_OFFSET: 0.25 0.25 0.0625
