#######################################################
#CASTEP cell file: /home/eng/phrbqc/GitHub/InPDislocs/Devel/Data_Devel/EOS/CASTEP_Files/ZB_EOS_0.7951/ZB_EOS_0.7951.cell
#Created using the Atomic Simulation Environment (ASE)#
#######################################################

%BLOCK LATTICE_CART
 4.691953  0.000000 -0.000000
 0.000000  4.691953 -0.000000
-0.000000 -0.000000  4.691953
%ENDBLOCK LATTICE_CART

%BLOCK POSITIONS_ABS
P  1.172988  1.172988  3.518964
P  3.518964  1.172988  1.172988
P  1.172988  3.518964  1.172988
P  3.518964  3.518964  3.518964
In  0.000000  0.000000  0.000000
In  2.345976  0.000000  2.345976
In  0.000000  2.345976  2.345976
In  2.345976  2.345976  0.000000
%ENDBLOCK POSITIONS_ABS

KPOINT_MP_GRID: 9 9 9
KPOINT_MP_OFFSET: 0.055556 0.055556 0.055556
