#######################################################
#CASTEP cell file: /home/eng/phrbqc/GitHub/InPDislocs/Devel/Data_Devel/EOS/CASTEP_Files/ZB_EOS_1.0243/ZB_EOS_1.0243.cell
#Created using the Atomic Simulation Environment (ASE)#
#######################################################

%BLOCK LATTICE_CART
 6.044405  0.000000 -0.000000
 0.000000  6.044405 -0.000000
-0.000000 -0.000000  6.044405
%ENDBLOCK LATTICE_CART

%BLOCK POSITIONS_ABS
P  1.511101  1.511101  4.533304
P  4.533304  1.511101  1.511101
P  1.511101  4.533304  1.511101
P  4.533304  4.533304  4.533304
In  0.000000  0.000000  0.000000
In  3.022203  0.000000  3.022203
In  0.000000  3.022203  3.022203
In  3.022203  3.022203  0.000000
%ENDBLOCK POSITIONS_ABS

KPOINT_MP_GRID: 7 7 7
KPOINT_MP_OFFSET: 0.071429 0.071429 0.071429
