#######################################################
#CASTEP cell file: /home/eng/phrbqc/GitHub/InPDislocs/Devel/Data_Devel/EOS/CASTEP_Files/ZB_EOS_0.8164/ZB_EOS_0.8164.cell
#Created using the Atomic Simulation Environment (ASE)#
#######################################################

%BLOCK LATTICE_CART
 4.817762  0.000000 -0.000000
 0.000000  4.817762 -0.000000
-0.000000 -0.000000  4.817762
%ENDBLOCK LATTICE_CART

%BLOCK POSITIONS_ABS
P  1.204441  1.204441  3.613322
P  3.613322  1.204441  1.204441
P  1.204441  3.613322  1.204441
P  3.613322  3.613322  3.613322
In  0.000000  0.000000  0.000000
In  2.408881  0.000000  2.408881
In  0.000000  2.408881  2.408881
In  2.408881  2.408881  0.000000
%ENDBLOCK POSITIONS_ABS

KPOINT_MP_GRID: 7 7 7
KPOINT_MP_OFFSET: 0.071429 0.071429 0.071429
