#######################################################
#CASTEP cell file: /home/eng/phrbqc/GitHub/InPDislocs/Devel/Data_Devel/EOS/CASTEP_Files/WZ_EOS_1.1096/WZ_EOS_1.1096.cell
#Created using the Atomic Simulation Environment (ASE)#
#######################################################

%BLOCK LATTICE_CART
 4.621181 -0.000048  0.000000
 2.310549  4.002084 -0.000000
 0.000000 -0.000000  7.588978
%ENDBLOCK LATTICE_CART

%BLOCK POSITIONS_ABS
P  2.310551  1.334003 -0.000099
P  4.621175  2.668041  3.794391
In  2.310565  1.334010  2.841640
In  4.621161  2.668033  6.636129
%ENDBLOCK POSITIONS_ABS

KPOINT_MP_GRID: 9 9 5
KPOINT_MP_OFFSET: 0.055556 0.055556 0.1
