# written by ASE

%BLOCK LATTICE_CART
 5.911462 -0.000004 -0.000004
-0.000004  5.900841  0.005307
-0.000004  0.005307  5.900841
%ENDBLOCK LATTICE_CART

%BLOCK POSITIONS_ABS
P  1.477862  1.479189  4.426956
P  4.433595  1.476534  1.476534
P  1.477862  4.426956  1.479189
P  4.433591  4.429608  4.429608
In  0.000000  0.000000  0.000000
In  2.955729  0.002652  2.950418
In -0.000004  2.953074  2.953074
In  2.955729  2.950419  0.002652
%ENDBLOCK POSITIONS_ABS

FIX_ALL_CELL: TRUE
KPOINT_MP_GRID: 6 6 6
KPOINT_MP_OFFSET: 0.08333333333333333 0.08333333333333333 0.08333333333333333
