#######################################################
#CASTEP cell file: /home/eng/phrbqc/GitHub/InPDislocs/Devel/Data_Devel/EOS/CASTEP_Files/ZB_EOS_0.7151/ZB_EOS_0.7151.cell
#Created using the Atomic Simulation Environment (ASE)#
#######################################################

%BLOCK LATTICE_CART
 4.220167  0.000000 -0.000000
 0.000000  4.220167 -0.000000
-0.000000 -0.000000  4.220167
%ENDBLOCK LATTICE_CART

%BLOCK POSITIONS_ABS
P  1.055042  1.055042  3.165125
P  3.165125  1.055042  1.055042
P  1.055042  3.165125  1.055042
P  3.165125  3.165125  3.165125
In  0.000000  0.000000  0.000000
In  2.110083  0.000000  2.110083
In  0.000000  2.110083  2.110083
In  2.110083  2.110083  0.000000
%ENDBLOCK POSITIONS_ABS

KPOINT_MP_GRID: 9 9 9
KPOINT_MP_OFFSET: 0.055556 0.055556 0.055556
