#######################################################
#CASTEP cell file: /home/eng/phrbqc/GitHub/InPDislocs/Devel/Data_Devel/EOS/CASTEP_Files/WZ_EOS_1.1683/WZ_EOS_1.1683.cell
#Created using the Atomic Simulation Environment (ASE)#
#######################################################

%BLOCK LATTICE_CART
 4.865364 -0.000051  0.000000
 2.432638  4.213553 -0.000000
 0.000000 -0.000000  7.989979
%ENDBLOCK LATTICE_CART

%BLOCK POSITIONS_ABS
P  2.432641  1.404491 -0.000104
P  4.865357  2.809020  3.994885
In  2.432655  1.404499  2.991792
In  4.865342  2.809011  6.986781
%ENDBLOCK POSITIONS_ABS

KPOINT_MP_GRID: 9 9 5
KPOINT_MP_OFFSET: 0.055556 0.055556 0.1
