# written by ASE

%BLOCK LATTICE_CART
14.454049 20.441112  0.000000
14.454049 -20.441112  0.000000
-0.000000  0.000000  4.172525
%ENDBLOCK LATTICE_CART

%BLOCK POSITIONS_ABS
In  9.114006 -3.246770 -0.122541
P  8.407436 -0.771951 -0.571607
In  5.705624 -3.235902  2.380751
P  6.296542 -0.741173  2.751009
In  9.523171  0.302030  1.616512
P  8.978924  2.809299  1.948039
In 13.176253  0.365760 -0.284866
P 12.603127  2.883854 -0.172075
In  7.677224  3.622772 -0.094588
P  7.462300  6.216183 -0.069015
In 11.371651  3.749880  1.923864
P 11.069009  6.305609  1.992382
In  9.832777  7.165541 -0.087997
P  9.630876  9.750176 -0.065341
In  6.256619  7.133240  2.029690
P 20.511765 -10.726185  2.032215
In  8.429526 10.652659  2.021779
P 22.689210 -7.202729  2.022776
In 11.996823 10.686055 -0.045519
P 11.817053 13.278910 -0.031866
In 21.417859 -6.384293 -0.066806
P 21.157010 -3.827429 -0.094077
In 10.608510 14.215441  2.045145
P 24.920472 -3.610097  2.027054
In 16.240803 -3.023228 -0.134148
P 15.647739 -0.500828 -0.218928
In 12.656137 -3.054845  1.952662
P 12.023186 -0.540387  1.782708
In 16.783701  0.399597  1.871288
P 16.198090  2.918585  1.935320
In 20.358892  0.439226 -0.247355
P 19.775695  2.948254 -0.123047
In 14.980206  3.790693 -0.146144
P 14.663625  6.338107 -0.081023
In 18.570859  3.806594  1.969082
P 18.279744  6.345848  2.041520
In 17.045746  7.187124 -0.041686
P 16.816594  9.729159  0.012972
In 13.439882  7.219166  2.008751
P 13.211125  9.788477  2.041587
In 15.609661 10.612031  2.101624
P 15.439006 13.167571  2.169313
In 19.210586 10.538275  0.058703
P 19.029173 13.067068  0.125705
In 14.243377 14.066138  0.086846
P 14.172524 16.628180  0.174547
In 17.851919 13.950602  2.217828
P  3.291788 -3.937776  2.293829
In 23.530483 -2.846915 -0.094997
P 22.794889 -0.388757 -0.426694
In 19.865486 -2.983684  1.978995
P 19.239164 -0.470369  1.844203
In 23.944151  0.562312  1.653052
P 23.300504  3.040742  1.997181
In 26.604511  0.531566  0.599351
P 12.404009 -17.394992  0.099094
In 22.129798  3.881058 -0.085195
P 21.888089  6.406994  0.003017
In 11.217090 -16.524953  2.161810
P 11.060502 -14.004192  2.185073
In  9.830472 -13.221826  0.094343
P  9.648997 -10.703781  0.099380
In 20.658177  7.206428  2.091230
P 20.452546  9.733239  2.142704
In  8.410544 -9.928625  2.188246
P  8.218842 -7.416781  2.235133
In 12.047604 -9.884947  0.050161
P 11.817277 -7.357551  0.005414
In  6.990668 -6.654724  0.160092
P  6.808866 -4.151199  0.266168
In 10.588916 -6.558419  2.090684
P 10.341997 -4.030843  1.976865
In 16.613413 17.428433  0.214454
P  2.590016 -0.482678  0.425861
In 12.983746 17.557627  2.259246
P 27.843167 -0.383681  2.656030
In  1.369838  0.390432  2.504251
P 16.000533 -17.506890  2.266717
In  5.057890  0.305974  0.531598
P  5.213824  2.851823  0.175348
In 14.802129 -16.623310  0.167653
P 14.681682 -14.075403  0.096960
In  3.969192  3.732189  2.254482
P 18.300131 -14.144401  2.143071
In 17.087546 -13.261790  0.054108
P 16.892630 -10.707189  0.005087
In 13.471090 -13.225849  2.178271
P 13.279630 -10.693318  2.137180
In 15.671714 -9.849667  2.090911
P 15.415115 -7.305475  2.044456
In 19.287209 -9.854201 -0.051198
P 19.040641 -7.290841 -0.071122
In 14.182229 -6.459149 -0.044120
P 13.879239 -3.917655 -0.125295
In 17.797047 -6.438087  2.012951
P 17.491390 -3.888468  1.961511
%ENDBLOCK POSITIONS_ABS

FIX_ALL_CELL: TRUE
KPOINT_MP_GRID: 2 2 8
KPOINT_MP_OFFSET: 0.25 0.25 0.0625
