#######################################################
#CASTEP cell file: /home/eng/phrbqc/GitHub/InPDislocs/Devel/Data_Devel/EOS/CASTEP_Files/ZB_EOS_1.0029/ZB_EOS_1.0029.cell
#Created using the Atomic Simulation Environment (ASE)#
#######################################################

%BLOCK LATTICE_CART
 5.918596  0.000000 -0.000000
 0.000000  5.918596 -0.000000
-0.000000 -0.000000  5.918596
%ENDBLOCK LATTICE_CART

%BLOCK POSITIONS_ABS
P  1.479649  1.479649  4.438947
P  4.438947  1.479649  1.479649
P  1.479649  4.438947  1.479649
P  4.438947  4.438947  4.438947
In  0.000000  0.000000  0.000000
In  2.959298  0.000000  2.959298
In  0.000000  2.959298  2.959298
In  2.959298  2.959298  0.000000
%ENDBLOCK POSITIONS_ABS

KPOINT_MP_GRID: 7 7 7
KPOINT_MP_OFFSET: 0.071429 0.071429 0.071429
