#######################################################
#CASTEP cell file: /home/eng/phrbqc/GitHub/InPDislocs/Devel/Data_Devel/EOS/CASTEP_Files/ZB_EOS_1.1895/ZB_EOS_1.1895.cell
#Created using the Atomic Simulation Environment (ASE)#
#######################################################

%BLOCK LATTICE_CART
 7.019429  0.000000 -0.000000
 0.000000  7.019429 -0.000000
-0.000000 -0.000000  7.019429
%ENDBLOCK LATTICE_CART

%BLOCK POSITIONS_ABS
P  1.754857  1.754857  5.264572
P  5.264572  1.754857  1.754857
P  1.754857  5.264572  1.754857
P  5.264572  5.264572  5.264572
In  0.000000  0.000000  0.000000
In  3.509715  0.000000  3.509715
In  0.000000  3.509715  3.509715
In  3.509715  3.509715  0.000000
%ENDBLOCK POSITIONS_ABS

KPOINT_MP_GRID: 5 5 5
KPOINT_MP_OFFSET: 0.1 0.1 0.1
